 O Si Hf                                
   1.00000000000000     
    20.3096463179830877    0.0000000000000000    0.0000000000000000
     0.0000000000000000   19.8625212307842212    0.0000000000000000
     0.0000000000000000    0.0000000000000000   13.3711533343531652
   O    Si   Hf
   192    96     1
Selective dynamics
Direct
  0.5025909357277101  0.0727798873228238  0.7075249800237629   F   F   F
  0.9974090642722899  0.5727798873228238  0.2075249800237629   F   F   F
  0.5025909357277101  0.4272201126771762  0.7075249800237629   F   F   F
  0.9973424198846262  0.9272134927991880  0.2076629567865105   T   T   T
  0.4973193642363136  0.9272377099252354  0.2922518073978480   T   T   T
  0.0025909357277101  0.4272201126771762  0.7924750199762371   F   F   F
  0.4974090642722899  0.5727798873228238  0.2924750199762371   F   F   F
  0.0025909357277101  0.0727798873228238  0.7924750199762371   F   F   F
  0.3868825154844515  0.0693889629433002  0.7958398315398867   F   F   F
  0.1131174845155485  0.5693889629433002  0.2958398315398867   F   F   F
  0.3868825154844515  0.4306110370566998  0.7958398315398867   F   F   F
  0.1129999534316038  0.9307253804159373  0.2960362240839531   T   T   T
  0.6130151025894893  0.9307255311927011  0.2040029174889209   T   T   T
  0.8868825154844515  0.4306110370566998  0.7041601684601133   F   F   F
  0.6131174845155485  0.5693889629433002  0.2041601684601133   F   F   F
  0.8868825154844515  0.0693889629433002  0.7041601684601133   F   F   F
  0.4023996572529711  0.1395881488352799  0.6299567877606833   F   F   F
  0.0976612496840652  0.6396764883811348  0.1302993303218825   T   T   T
  0.4023996572529711  0.3604118511647201  0.6299567877606833   F   F   F
  0.0974985559195036  0.8604294635694275  0.1301826854592566   T   T   T
  0.5973916596024713  0.8604414833111420  0.3698350712990577   T   T   T
  0.9023996572529711  0.3604118511647201  0.8700432122393167   F   F   F
  0.5976606755322885  0.6396432637448568  0.3697732369169168   T   T   T
  0.9023996572529711  0.1395881488352799  0.8700432122393167   F   F   F
  0.4045031871746829  0.0051825304987858  0.6227513228883907   F   F   F
  0.0954968128253171  0.5051825304987858  0.1227513228883836   F   F   F
  0.4045031871746829  0.4948174695012142  0.6227513228883907   F   F   F
  0.0954657348120667  0.9947966635812321  0.1227359049847544   T   T   T
  0.5954481913702085  0.9948065326636381  0.3772616650047808   T   T   T
  0.9045031871746829  0.4948174695012142  0.8772486771116093   F   F   F
  0.5954968128253171  0.5051825304987858  0.3772486771116164   F   F   F
  0.9045031871746829  0.0051825304987858  0.8772486771116093   F   F   F
  0.3244131055804047  0.0395323330820503  0.9639933782656485   F   F   F
  0.1755868944195953  0.5395323330820503  0.4639933782656414   F   F   F
  0.3244131055804047  0.4604676669179497  0.9639933782656485   F   F   F
  0.1756175165695925  0.9605003557511929  0.4639959429069336   T   T   T
  0.6756248742679921  0.9605625468110907  0.0360495986726134   T   T   T
  0.8244131055804047  0.4604676669179497  0.5360066217343515   F   F   F
  0.6755868944195953  0.5395323330820503  0.0360066217343515   F   F   F
  0.8244131055804047  0.0395323330820503  0.5360066217343515   F   F   F
  0.3244392235733544  0.9538106231623963  0.8086384153894095   T   T   T
  0.1753558411149996  0.4538071248021893  0.3088267361878323   F   F   F
  0.3246441588850004  0.5461928751978107  0.8088267361878323   F   F   F
  0.1753558411149996  0.0461928751978107  0.3088267361878323   F   F   F
  0.6753558411149996  0.0461928751978107  0.1911732638121677   F   F   F
  0.8246441588850004  0.5461928751978107  0.6911732638121677   F   F   F
  0.6753558411149996  0.4538071248021893  0.1911732638121677   F   F   F
  0.8244748753116222  0.9538403394404732  0.6913267226316695   T   T   T
  0.2554253162963604  0.0666022326352760  0.8022081905298890   F   F   F
  0.2445746837036396  0.5666022326352760  0.3022081905298890   F   F   F
  0.2554253162963604  0.4333977673647240  0.8022081905298890   F   F   F
  0.2445142653105813  0.9334286718489180  0.3021076945182459   T   T   T
  0.7445231807431371  0.9333399476242227  0.1979012171086335   T   T   T
  0.7554253162963604  0.4333977673647240  0.6977918094701110   F   F   F
  0.7445746837036396  0.5666022326352760  0.1977918094701110   F   F   F
  0.7554253162963604  0.0666022326352760  0.6977918094701110   F   F   F
  0.2915288497951138  0.1271841775282851  0.1038202525947156   F   F   F
  0.2084251089270555  0.6273020881072889  0.6036846825224866   T   T   T
  0.2915288497951138  0.3728158224717149  0.1038202525947156   F   F   F
  0.2087585140905634  0.8727824590341712  0.6035706546549320   T   T   T
  0.7083575074969859  0.8729212904684743  0.8962881862283986   T   T   T
  0.7915288497951138  0.3728158224717149  0.3961797474052844   F   F   F
  0.7084571594612369  0.6271912915675167  0.8962409339327116   T   T   T
  0.7915288497951138  0.1271841775282851  0.3961797474052844   F   F   F
  0.2010413266345239  0.0428271635220199  0.0290771958813778   F   F   F
  0.2989586733654761  0.5428271635220199  0.5290771958813778   F   F   F
  0.2010413266345239  0.4571728364779801  0.0290771958813778   F   F   F
  0.2990093774008865  0.9578248624914949  0.5292806851684808   T   T   T
  0.7989408885520821  0.9573379465190379  0.9709879367500863   T   T   T
  0.7010413266345239  0.4571728364779801  0.4709228041186222   F   F   F
  0.7989586733654761  0.5428271635220199  0.9709228041186222   F   F   F
  0.7010413266345239  0.0428271635220199  0.4709228041186222   F   F   F
  0.2968895493308423  0.9978563749150382  0.1470275059927886   F   F   F
  0.2031104506691577  0.4978563749150382  0.6470275059927815   F   F   F
  0.2968895493308423  0.5021436250849618  0.1470275059927886   F   F   F
  0.2031104506691577  0.0021436250849618  0.6470275059927815   F   F   F
  0.7031104506691577  0.0021436250849618  0.8529724940072185   F   F   F
  0.7968895493308423  0.5021436250849618  0.3529724940072114   F   F   F
  0.7031104506691577  0.4978563749150382  0.8529724940072185   F   F   F
  0.7968895493308423  0.9978563749150382  0.3529724940072114   F   F   F
  0.1089942560051327  0.1267462740242564  0.0958674480733634   F   F   F
  0.3911708710828913  0.6268354685686227  0.5959517143349774   T   T   T
  0.1089942560051327  0.3732537259757436  0.0958674480733634   F   F   F
  0.3908293526977181  0.8730950489853140  0.5955765605946729   T   T   T
  0.8908512436218013  0.8732701009136424  0.9044452553136063   T   T   T
  0.6089942560051327  0.3732537259757436  0.4041325519266366   F   F   F
  0.8908713544109077  0.6267929450896401  0.9042865203869098   T   T   T
  0.6089942560051327  0.1267462740242564  0.4041325519266366   F   F   F
  0.0831228757301545  0.0463555586530404  0.9432954022258713   F   F   F
  0.4168771242698455  0.5463555586530404  0.4432954022258713   F   F   F
  0.0831228757301545  0.4536444413469596  0.9432954022258713   F   F   F
  0.4169800568868572  0.9536587447652335  0.4432798821643193   T   T   T
  0.9168603645163309  0.9536616521451678  0.0568116786092451   T   T   T
  0.5831228757301545  0.4536444413469596  0.5567045977741287   F   F   F
  0.9168771242698455  0.5463555586530404  0.0567045977741287   F   F   F
  0.5831228757301545  0.0463555586530404  0.5567045977741287   F   F   F
  0.1289595153762306  0.0794086100630622  0.7630589808606629   F   F   F
  0.3710404846237694  0.5794086100630622  0.2630589808606629   F   F   F
  0.1289595153762306  0.4205913899369378  0.7630589808606629   F   F   F
  0.3710771961339084  0.9205588055924651  0.2629574022654704   T   T   T
  0.8710212851554052  0.9205692704342818  0.2370130591600278   T   T   T
  0.6289595153762306  0.4205913899369378  0.7369410191393371   F   F   F
  0.8710404846237694  0.5794086100630622  0.2369410191393371   F   F   F
  0.6289595153762306  0.0794086100630622  0.7369410191393371   F   F   F
  0.0735049738908869  0.9603076613290680  0.7910244134668594   T   T   T
  0.4264236799621770  0.4603034831418356  0.2908788493740602   F   F   F
  0.0735763200378230  0.5396965168581644  0.7908788493740531   F   F   F
  0.4264236799621770  0.0396965168581644  0.2908788493740602   F   F   F
  0.9264236799621770  0.0396965168581644  0.2091211506259398   F   F   F
  0.5735763200378230  0.5396965168581644  0.7091211506259469   F   F   F
  0.9264236799621770  0.4603034831418356  0.2091211506259398   F   F   F
  0.5737163985409511  0.9603012495516874  0.7089857715169761   T   T   T
  0.2164898181671191  0.1361625178643777  0.6465161981987251   F   F   F
  0.2836050419825847  0.6361818600920554  0.1465701279764767   T   T   T
  0.2164898181671191  0.3638374821356223  0.6465161981987251   F   F   F
  0.2836107580185895  0.8638173261394391  0.1466056670262683   T   T   T
  0.7836243478349608  0.8637739338563484  0.3535239268172157   T   T   T
  0.7164898181671191  0.3638374821356223  0.8534838018012749   F   F   F
  0.7835985937698853  0.6362013516648840  0.3534585402380073   T   T   T
  0.7164898181671191  0.1361625178643777  0.8534838018012749   F   F   F
  0.4955606682661043  0.8535757248919618  0.7140381962984547   T   T   T
  0.0041870730047435  0.3531357233755159  0.2140092002379745   F   F   F
  0.4960637951722458  0.6467823464869911  0.7140425918198846   T   T   T
  0.0041870730047435  0.1468642766244841  0.2140092002379745   F   F   F
  0.5041870730047435  0.1468642766244841  0.2859907997620255   F   F   F
  0.9959373827536432  0.6469696199209545  0.7868600093851408   T   T   T
  0.5041870730047435  0.3531357233755159  0.2859907997620255   F   F   F
  0.9956413893313908  0.8532112180923950  0.7863798244516369   T   T   T
  0.3773205487319245  0.8330499630207149  0.7856018697783888   T   T   T
  0.1223394308142645  0.3330694750354013  0.2858074615356969   F   F   F
  0.3779629606883794  0.6667693812300681  0.7860803161428404   T   T   T
  0.1223394308142645  0.1669305249645987  0.2858074615356969   F   F   F
  0.6223394308142645  0.1669305249645987  0.2141925384643031   F   F   F
  0.8780543828622297  0.6667027255961413  0.7141324995101421   T   T   T
  0.6223394308142645  0.3330694750354013  0.2141925384643031   F   F   F
  0.8773974123046673  0.8331736444425261  0.7145400997997557   T   T   T
  0.4245535042257697  0.7499803881343684  0.6474426897357701   T   T   T
  0.0759212098317121  0.2500000000000000  0.1472425182485750   F   F   F
  0.5759212098317121  0.2500000000000000  0.3527574817514250   F   F   F
  0.9238598719905288  0.7500466112787528  0.8529739228860493   T   T   T
  0.3172813976526087  0.8648196939682246  0.9552205531743448   T   T   T
  0.1824716471111429  0.3646363999312143  0.4553082923555465   F   F   F
  0.3173762856361672  0.6352554748003668  0.9552677949689170   T   T   T
  0.1824716471111429  0.1353636000687857  0.4553082923555465   F   F   F
  0.6824716471111429  0.1353636000687857  0.0446917076444535   F   F   F
  0.8174960829033736  0.6352678397795908  0.5447679685142579   T   T   T
  0.6824716471111429  0.3646363999312143  0.0446917076444535   F   F   F
  0.8172994661246273  0.8647388601240200  0.5448958684167223   T   T   T
  0.2472480851042312  0.8469100938189321  0.7905520236011557   T   T   T
  0.2524421241138057  0.3470288878372898  0.2906042087582890   F   F   F
  0.2478243217033579  0.6533780574847293  0.7901631980569065   T   T   T
  0.2524421241138057  0.1529711121627102  0.2906042087582890   F   F   F
  0.7524421241138057  0.1529711121627102  0.2093957912417110   F   F   F
  0.7479344294492228  0.6533730283393502  0.7097979969537145   T   T   T
  0.7524421241138057  0.3470288878372898  0.2093957912417110   F   F   F
  0.7472172081848665  0.8470764730697810  0.7094784849584229   T   T   T
  0.2959672284070201  0.7500483971182755  0.0500132117260340   T   T   T
  0.2047512101703362  0.2500000000000000  0.5502475789369754   F   F   F
  0.7047512101703362  0.2500000000000000  0.9497524210630175   F   F   F
  0.7955917245155092  0.7500118297428758  0.4500225312615138   T   T   T
  0.1960824662808132  0.8321659577183247  0.0069294283983427   T   T   T
  0.3039666124841744  0.3327166449111161  0.5062562090960796   F   F   F
  0.1961679104282553  0.6679374321285644  0.0068027500037929   T   T   T
  0.3039666124841744  0.1672833550888839  0.5062562090960796   F   F   F
  0.8039666124841744  0.1672833550888839  0.9937437909039204   F   F   F
  0.6961007880633178  0.6675755883531945  0.4934309164514671   T   T   T
  0.8039666124841744  0.3327166449111161  0.9937437909039204   F   F   F
  0.6959485465259602  0.8324679178395555  0.4932263633614600   T   T   T
  0.0927828705013769  0.7499943881260134  0.0201921504082372   T   T   T
  0.4068435254241223  0.2500000000000000  0.5199589040338424   F   F   F
  0.9068435254241223  0.2500000000000000  0.9800410959661576   F   F   F
  0.5929304862415714  0.7499789810006132  0.4797301644817379   T   T   T
  0.0811514728131652  0.8694969464743415  0.9342474974133567   T   T   T
  0.4191681511649463  0.3696157380695979  0.4342049483443873   F   F   F
  0.0813045123084522  0.6301705631965168  0.9346558409183207   T   T   T
  0.4191681511649463  0.1303842619304021  0.4342049483443873   F   F   F
  0.9191681511649392  0.1303842619304021  0.0657950516556127   F   F   F
  0.5810300482631727  0.6303718432268174  0.5655396950029861   T   T   T
  0.9191681511649392  0.3696157380695979  0.0657950516556127   F   F   F
  0.5808325263386179  0.8693969127732546  0.5657744285515366   T   T   T
  0.1210940166101317  0.8401288593448876  0.7470285280552987   T   T   T
  0.3785939221413273  0.3399016741142518  0.2475054947775277   F   F   F
  0.1214343133115177  0.6599712204857988  0.7478225593577228   T   T   T
  0.3785939221413273  0.1600983258857482  0.2475054947775277   F   F   F
  0.8785939221413201  0.1600983258857482  0.2524945052224723   F   F   F
  0.6216367828761827  0.6600384395024285  0.7522038541966222   T   T   T
  0.8785939221413201  0.3399016741142518  0.2524945052224723   F   F   F
  0.6210728166413483  0.8398543635772703  0.7527717046055767   T   T   T
  0.2024715835734171  0.7500700223853819  0.6707677098713323   T   T   T
  0.2968133864148328  0.2500000000000000  0.1713179004415224   F   F   F
  0.7968133864148328  0.2500000000000000  0.3286820995584776   F   F   F
  0.7029280236474083  0.7501010837047424  0.8290920983067035   T   T   T
  0.4240099490616913  0.0712238689892644  0.6879805273312769   F   F   F
  0.0759900509383087  0.5712238689892644  0.1879805273312769   F   F   F
  0.4240099490616913  0.4287761310107356  0.6879805273312769   F   F   F
  0.0759191397111383  0.9288278019413365  0.1881640902462391   T   T   T
  0.5758690962655074  0.9288482745915467  0.3118283907093120   T   T   T
  0.9240099490616913  0.4287761310107356  0.8120194726687231   F   F   F
  0.5759900509383087  0.5712238689892644  0.3120194726687231   F   F   F
  0.9240099490616913  0.0712238689892644  0.8120194726687231   F   F   F
  0.3227198167376812  0.0323507114762833  0.8432574132120010   F   F   F
  0.1772801832623188  0.5323507114762833  0.3432574132120010   F   F   F
  0.3227198167376812  0.4676492885237167  0.8432574132120010   F   F   F
  0.1772661051591374  0.9676776457902623  0.3432571458381674   T   T   T
  0.6772820315310190  0.9676886640551942  0.1567753029916640   T   T   T
  0.8227198167376812  0.4676492885237167  0.6567425867879990   F   F   F
  0.6772801832623188  0.5323507114762833  0.1567425867879990   F   F   F
  0.8227198167376812  0.0323507114762833  0.6567425867879990   F   F   F
  0.2779386767015382  0.0519583657721796  0.0611307184073340   F   F   F
  0.2220613232984618  0.5519583657721796  0.5611307184073340   F   F   F
  0.2779386767015382  0.4480416342278204  0.0611307184073340   F   F   F
  0.2221679634728239  0.9481920427183201  0.5610018312828520   T   T   T
  0.7220668521174650  0.9481411291813718  0.9389047574946036   T   T   T
  0.7779386767015382  0.4480416342278204  0.4388692815926660   F   F   F
  0.7220613232984618  0.5519583657721796  0.9388692815926660   F   F   F
  0.7779386767015382  0.0519583657721796  0.4388692815926660   F   F   F
  0.1225104503909904  0.0527779080613016  0.0479940299588080   F   F   F
  0.3774895496090096  0.5527779080612945  0.5479940299588080   F   F   F
  0.1225104503909904  0.4472220919386984  0.0479940299588080   F   F   F
  0.3774433602263608  0.9472899705832306  0.5477948716240025   T   T   T
  0.8774479141726621  0.9472935862906807  0.9521562461380337   T   T   T
  0.6225104503909904  0.4472220919386984  0.4520059700411920   F   F   F
  0.8774895496090096  0.5527779080612945  0.9520059700411920   F   F   F
  0.6225104503909904  0.0527779080613016  0.4520059700411920   F   F   F
  0.0722297752641694  0.0390952680378902  0.8235403254031510   F   F   F
  0.4277702247358306  0.5390952680378902  0.3235403254031510   F   F   F
  0.0722297752641694  0.4609047319621098  0.8235403254031510   F   F   F
  0.4277363847829251  0.9608802219236138  0.3235040513798060   T   T   T
  0.9277336442591404  0.9608838147763837  0.1765522116484493   T   T   T
  0.5722297752641694  0.4609047319621098  0.6764596745968490   F   F   F
  0.9277702247358306  0.5390952680378902  0.1764596745968490   F   F   F
  0.5722297752641694  0.0390952680378902  0.6764596745968490   F   F   F
  0.2011043077742869  0.0703822647950858  0.7135284737427909   F   F   F
  0.2988956922257131  0.5703822647950858  0.2135284737427909   F   F   F
  0.2011043077742869  0.4296177352049142  0.7135284737427909   F   F   F
  0.2989125994899658  0.9295922948180720  0.2135673878788432   T   T   T
  0.7988936048489225  0.9295789594851519  0.2865388087558113   T   T   T
  0.7011043077742869  0.4296177352049142  0.7864715262572091   F   F   F
  0.7988956922257131  0.5703822647950858  0.2864715262572091   F   F   F
  0.7011043077742869  0.0703822647950858  0.7864715262572091   F   F   F
  0.4222867817981600  0.8277691638145969  0.6852928060682245   T   T   T
  0.0776147133579599  0.3277153649932174  0.1851848138450478   F   F   F
  0.4226689107665366  0.6722102554665519  0.6855294413626857   T   T   T
  0.0776147133579599  0.1722846350067826  0.1851848138450478   F   F   F
  0.5776147133579599  0.1722846350067826  0.3148151861549522   F   F   F
  0.9223980686085343  0.6723223600298256  0.8151499027016730   T   T   T
  0.5776147133579599  0.3277153649932174  0.3148151861549522   F   F   F
  0.9221988381223563  0.8277704366097290  0.8151100204319397   T   T   T
  0.3166072592429716  0.8745150549676391  0.8347123665549969   T   T   T
  0.1830680121786585  0.3744867008663704  0.3347839836351412   F   F   F
  0.3169549334849289  0.6255384722615841  0.8347603014654588   T   T   T
  0.1830680121786585  0.1255132991336296  0.3347839836351412   F   F   F
  0.6830680121786585  0.1255132991336296  0.1652160163648588   F   F   F
  0.8170818337935588  0.6255360809506202  0.6653103616299715   T   T   T
  0.6830680121786585  0.3744867008663704  0.1652160163648588   F   F   F
  0.8166392775471936  0.8745245694093911  0.6654142768787218   T   T   T
  0.2728575279925464  0.8276329699227306  0.0400121817855983   T   T   T
  0.2273307924942145  0.3277299682844301  0.5397963552221228   F   F   F
  0.2729239529993926  0.6724514734696289  0.0400098677700013   T   T   T
  0.2273307924942145  0.1722700317155699  0.5397963552221228   F   F   F
  0.7273307924942145  0.1722700317155699  0.9602036447778772   F   F   F
  0.7728357342606068  0.6723063261336328  0.4601841815803703   T   T   T
  0.7273307924942145  0.3277299682844301  0.9602036447778772   F   F   F
  0.7727238826955478  0.8276787683506742  0.4602232377642492   T   T   T
  0.1171027000853161  0.8278443516046401  0.0232440377217345   T   T   T
  0.3829046392724536  0.3279865241180246  0.5228273843902258   F   F   F
  0.1172069813188373  0.6721914861644861  0.0233167354135256   T   T   T
  0.3829046392724536  0.1720134758819754  0.5228273843902258   F   F   F
  0.8829046392724536  0.1720134758819754  0.9771726156097742   F   F   F
  0.6171467639269032  0.6721309672067188  0.4767958527375307   T   T   T
  0.8829046392724536  0.3279865241180246  0.9771726156097742   F   F   F
  0.6169631350083044  0.8278965859027489  0.4767952163716180   T   T   T
  0.0682281162500353  0.8805743111555461  0.8152496878124851   T   T   T
  0.4316422255872467  0.3805306503245163  0.3150522314059216   F   F   F
  0.0684413964888341  0.6193815599421243  0.8155919361372916   T   T   T
  0.4316422255872467  0.1194693496754837  0.3150522314059216   F   F   F
  0.9316422255872467  0.1194693496754837  0.1849477685940784   F   F   F
  0.5685768499944093  0.6194204548088366  0.6846724494054056   T   T   T
  0.9316422255872467  0.3805306503245163  0.1849477685940784   F   F   F
  0.5682625605953250  0.8805603205500960  0.6848467991099370   T   T   T
  0.1947123719545984  0.8282460061323189  0.7033161730332002   T   T   T
  0.3049811923033445  0.3281471210548332  0.2034825387585641   F   F   F
  0.1948702163407040  0.6719098114565181  0.7034784645259820   T   T   T
  0.3049811923033445  0.1718528789451668  0.2034825387585641   F   F   F
  0.8049811923033445  0.1718528789451668  0.2965174612414359   F   F   F
  0.6951055807363916  0.6719746411757692  0.7966678992332886   T   T   T
  0.8049811923033445  0.3281471210548332  0.2965174612414359   F   F   F
  0.6947212871217656  0.8282098060719466  0.7967367901418305   T   T   T
  0.3054401422521746  0.7505984760036333  0.4284729931389716   T   T   T
 
  0.00000000E+00  0.00000000E+00  0.00000000E+00
  0.00000000E+00  0.00000000E+00  0.00000000E+00
  0.00000000E+00  0.00000000E+00  0.00000000E+00
  0.00000000E+00  0.00000000E+00  0.00000000E+00
  0.00000000E+00  0.00000000E+00  0.00000000E+00
  0.00000000E+00  0.00000000E+00  0.00000000E+00
  0.00000000E+00  0.00000000E+00  0.00000000E+00
  0.00000000E+00  0.00000000E+00  0.00000000E+00
  0.00000000E+00  0.00000000E+00  0.00000000E+00
  0.00000000E+00  0.00000000E+00  0.00000000E+00
  0.00000000E+00  0.00000000E+00  0.00000000E+00
  0.00000000E+00  0.00000000E+00  0.00000000E+00
  0.00000000E+00  0.00000000E+00  0.00000000E+00
  0.00000000E+00  0.00000000E+00  0.00000000E+00
  0.00000000E+00  0.00000000E+00  0.00000000E+00
  0.00000000E+00  0.00000000E+00  0.00000000E+00
  0.00000000E+00  0.00000000E+00  0.00000000E+00
  0.00000000E+00  0.00000000E+00  0.00000000E+00
  0.00000000E+00  0.00000000E+00  0.00000000E+00
  0.00000000E+00  0.00000000E+00  0.00000000E+00
  0.00000000E+00  0.00000000E+00  0.00000000E+00
  0.00000000E+00  0.00000000E+00  0.00000000E+00
  0.00000000E+00  0.00000000E+00  0.00000000E+00
  0.00000000E+00  0.00000000E+00  0.00000000E+00
  0.00000000E+00  0.00000000E+00  0.00000000E+00
  0.00000000E+00  0.00000000E+00  0.00000000E+00
  0.00000000E+00  0.00000000E+00  0.00000000E+00
  0.00000000E+00  0.00000000E+00  0.00000000E+00
  0.00000000E+00  0.00000000E+00  0.00000000E+00
  0.00000000E+00  0.00000000E+00  0.00000000E+00
  0.00000000E+00  0.00000000E+00  0.00000000E+00
  0.00000000E+00  0.00000000E+00  0.00000000E+00
  0.00000000E+00  0.00000000E+00  0.00000000E+00
  0.00000000E+00  0.00000000E+00  0.00000000E+00
  0.00000000E+00  0.00000000E+00  0.00000000E+00
  0.00000000E+00  0.00000000E+00  0.00000000E+00
  0.00000000E+00  0.00000000E+00  0.00000000E+00
  0.00000000E+00  0.00000000E+00  0.00000000E+00
  0.00000000E+00  0.00000000E+00  0.00000000E+00
  0.00000000E+00  0.00000000E+00  0.00000000E+00
  0.00000000E+00  0.00000000E+00  0.00000000E+00
  0.00000000E+00  0.00000000E+00  0.00000000E+00
  0.00000000E+00  0.00000000E+00  0.00000000E+00
  0.00000000E+00  0.00000000E+00  0.00000000E+00
  0.00000000E+00  0.00000000E+00  0.00000000E+00
  0.00000000E+00  0.00000000E+00  0.00000000E+00
  0.00000000E+00  0.00000000E+00  0.00000000E+00
  0.00000000E+00  0.00000000E+00  0.00000000E+00
  0.00000000E+00  0.00000000E+00  0.00000000E+00
  0.00000000E+00  0.00000000E+00  0.00000000E+00
  0.00000000E+00  0.00000000E+00  0.00000000E+00
  0.00000000E+00  0.00000000E+00  0.00000000E+00
  0.00000000E+00  0.00000000E+00  0.00000000E+00
  0.00000000E+00  0.00000000E+00  0.00000000E+00
  0.00000000E+00  0.00000000E+00  0.00000000E+00
  0.00000000E+00  0.00000000E+00  0.00000000E+00
  0.00000000E+00  0.00000000E+00  0.00000000E+00
  0.00000000E+00  0.00000000E+00  0.00000000E+00
  0.00000000E+00  0.00000000E+00  0.00000000E+00
  0.00000000E+00  0.00000000E+00  0.00000000E+00
  0.00000000E+00  0.00000000E+00  0.00000000E+00
  0.00000000E+00  0.00000000E+00  0.00000000E+00
  0.00000000E+00  0.00000000E+00  0.00000000E+00
  0.00000000E+00  0.00000000E+00  0.00000000E+00
  0.00000000E+00  0.00000000E+00  0.00000000E+00
  0.00000000E+00  0.00000000E+00  0.00000000E+00
  0.00000000E+00  0.00000000E+00  0.00000000E+00
  0.00000000E+00  0.00000000E+00  0.00000000E+00
  0.00000000E+00  0.00000000E+00  0.00000000E+00
  0.00000000E+00  0.00000000E+00  0.00000000E+00
  0.00000000E+00  0.00000000E+00  0.00000000E+00
  0.00000000E+00  0.00000000E+00  0.00000000E+00
  0.00000000E+00  0.00000000E+00  0.00000000E+00
  0.00000000E+00  0.00000000E+00  0.00000000E+00
  0.00000000E+00  0.00000000E+00  0.00000000E+00
  0.00000000E+00  0.00000000E+00  0.00000000E+00
  0.00000000E+00  0.00000000E+00  0.00000000E+00
  0.00000000E+00  0.00000000E+00  0.00000000E+00
  0.00000000E+00  0.00000000E+00  0.00000000E+00
  0.00000000E+00  0.00000000E+00  0.00000000E+00
  0.00000000E+00  0.00000000E+00  0.00000000E+00
  0.00000000E+00  0.00000000E+00  0.00000000E+00
  0.00000000E+00  0.00000000E+00  0.00000000E+00
  0.00000000E+00  0.00000000E+00  0.00000000E+00
  0.00000000E+00  0.00000000E+00  0.00000000E+00
  0.00000000E+00  0.00000000E+00  0.00000000E+00
  0.00000000E+00  0.00000000E+00  0.00000000E+00
  0.00000000E+00  0.00000000E+00  0.00000000E+00
  0.00000000E+00  0.00000000E+00  0.00000000E+00
  0.00000000E+00  0.00000000E+00  0.00000000E+00
  0.00000000E+00  0.00000000E+00  0.00000000E+00
  0.00000000E+00  0.00000000E+00  0.00000000E+00
  0.00000000E+00  0.00000000E+00  0.00000000E+00
  0.00000000E+00  0.00000000E+00  0.00000000E+00
  0.00000000E+00  0.00000000E+00  0.00000000E+00
  0.00000000E+00  0.00000000E+00  0.00000000E+00
  0.00000000E+00  0.00000000E+00  0.00000000E+00
  0.00000000E+00  0.00000000E+00  0.00000000E+00
  0.00000000E+00  0.00000000E+00  0.00000000E+00
  0.00000000E+00  0.00000000E+00  0.00000000E+00
  0.00000000E+00  0.00000000E+00  0.00000000E+00
  0.00000000E+00  0.00000000E+00  0.00000000E+00
  0.00000000E+00  0.00000000E+00  0.00000000E+00
  0.00000000E+00  0.00000000E+00  0.00000000E+00
  0.00000000E+00  0.00000000E+00  0.00000000E+00
  0.00000000E+00  0.00000000E+00  0.00000000E+00
  0.00000000E+00  0.00000000E+00  0.00000000E+00
  0.00000000E+00  0.00000000E+00  0.00000000E+00
  0.00000000E+00  0.00000000E+00  0.00000000E+00
  0.00000000E+00  0.00000000E+00  0.00000000E+00
  0.00000000E+00  0.00000000E+00  0.00000000E+00
  0.00000000E+00  0.00000000E+00  0.00000000E+00
  0.00000000E+00  0.00000000E+00  0.00000000E+00
  0.00000000E+00  0.00000000E+00  0.00000000E+00
  0.00000000E+00  0.00000000E+00  0.00000000E+00
  0.00000000E+00  0.00000000E+00  0.00000000E+00
  0.00000000E+00  0.00000000E+00  0.00000000E+00
  0.00000000E+00  0.00000000E+00  0.00000000E+00
  0.00000000E+00  0.00000000E+00  0.00000000E+00
  0.00000000E+00  0.00000000E+00  0.00000000E+00
  0.00000000E+00  0.00000000E+00  0.00000000E+00
  0.00000000E+00  0.00000000E+00  0.00000000E+00
  0.00000000E+00  0.00000000E+00  0.00000000E+00
  0.00000000E+00  0.00000000E+00  0.00000000E+00
  0.00000000E+00  0.00000000E+00  0.00000000E+00
  0.00000000E+00  0.00000000E+00  0.00000000E+00
  0.00000000E+00  0.00000000E+00  0.00000000E+00
  0.00000000E+00  0.00000000E+00  0.00000000E+00
  0.00000000E+00  0.00000000E+00  0.00000000E+00
  0.00000000E+00  0.00000000E+00  0.00000000E+00
  0.00000000E+00  0.00000000E+00  0.00000000E+00
  0.00000000E+00  0.00000000E+00  0.00000000E+00
  0.00000000E+00  0.00000000E+00  0.00000000E+00
  0.00000000E+00  0.00000000E+00  0.00000000E+00
  0.00000000E+00  0.00000000E+00  0.00000000E+00
  0.00000000E+00  0.00000000E+00  0.00000000E+00
  0.00000000E+00  0.00000000E+00  0.00000000E+00
  0.00000000E+00  0.00000000E+00  0.00000000E+00
  0.00000000E+00  0.00000000E+00  0.00000000E+00
  0.00000000E+00  0.00000000E+00  0.00000000E+00
  0.00000000E+00  0.00000000E+00  0.00000000E+00
  0.00000000E+00  0.00000000E+00  0.00000000E+00
  0.00000000E+00  0.00000000E+00  0.00000000E+00
  0.00000000E+00  0.00000000E+00  0.00000000E+00
  0.00000000E+00  0.00000000E+00  0.00000000E+00
  0.00000000E+00  0.00000000E+00  0.00000000E+00
  0.00000000E+00  0.00000000E+00  0.00000000E+00
  0.00000000E+00  0.00000000E+00  0.00000000E+00
  0.00000000E+00  0.00000000E+00  0.00000000E+00
  0.00000000E+00  0.00000000E+00  0.00000000E+00
  0.00000000E+00  0.00000000E+00  0.00000000E+00
  0.00000000E+00  0.00000000E+00  0.00000000E+00
  0.00000000E+00  0.00000000E+00  0.00000000E+00
  0.00000000E+00  0.00000000E+00  0.00000000E+00
  0.00000000E+00  0.00000000E+00  0.00000000E+00
  0.00000000E+00  0.00000000E+00  0.00000000E+00
  0.00000000E+00  0.00000000E+00  0.00000000E+00
  0.00000000E+00  0.00000000E+00  0.00000000E+00
  0.00000000E+00  0.00000000E+00  0.00000000E+00
  0.00000000E+00  0.00000000E+00  0.00000000E+00
  0.00000000E+00  0.00000000E+00  0.00000000E+00
  0.00000000E+00  0.00000000E+00  0.00000000E+00
  0.00000000E+00  0.00000000E+00  0.00000000E+00
  0.00000000E+00  0.00000000E+00  0.00000000E+00
  0.00000000E+00  0.00000000E+00  0.00000000E+00
  0.00000000E+00  0.00000000E+00  0.00000000E+00
  0.00000000E+00  0.00000000E+00  0.00000000E+00
  0.00000000E+00  0.00000000E+00  0.00000000E+00
  0.00000000E+00  0.00000000E+00  0.00000000E+00
  0.00000000E+00  0.00000000E+00  0.00000000E+00
  0.00000000E+00  0.00000000E+00  0.00000000E+00
  0.00000000E+00  0.00000000E+00  0.00000000E+00
  0.00000000E+00  0.00000000E+00  0.00000000E+00
  0.00000000E+00  0.00000000E+00  0.00000000E+00