 O Si Sc  H 
 1.0000000000000000
    20.3096463179830877    0.0000000000000000    0.0000000000000000
     0.0000000000000000   19.8625212307842212    0.0000000000000000
     0.0000000000000000    0.0000000000000000   13.3711533343531652
 O Si Sc  H 
 192  96   1   2
Selective dynamics
Cartesian
 10.2074441472539608  1.4455920571236711  9.4604249957828941   F   F   F
 20.2570253297206690 11.3768526725157813  2.7748483286063115   F   F   F
 10.2074441472539608  8.4856685582684399  9.4604249957828941   F   F   F
 20.2571391013966746 18.4318713361366271  2.8040539849156718   T   T   T
 10.0923787984706568 18.4142998112715368  3.9493159024205977   T   T   T
  0.0526209882624183  8.4856685582684399 10.5963050057468546   F   F   F
 10.1022021707291270 11.3768526725157813  3.9107283385702711   F   F   F
  0.0526209882624183  1.4455920571236711 10.5963050057468546   F   F   F
  7.8574470561008258  1.3782397496433998 10.6412964171056164   F   F   F
  2.2973761028907185 11.3095003650355110  3.9557197499290346   F   F   F
  7.8574470561008258  8.5530208657487101 10.6412964171056164   F   F   F
  2.3094044695197780 18.4879665032674225  3.9686707842500648   T   T   T
 12.4198514018980291 18.5023644222746455  2.7158608359055703   T   T   T
 18.0122702150923679  8.5530208657487101  9.4154335844241306   F   F   F
 12.4521992618822619 11.3095003650355110  2.7298569172475480   F   F   F
 18.0122702150923679  1.3782397496433998  9.4154335844241306   F   F   F
  8.1725947172854614  2.7725725698066146  8.4232488031646700   F   F   F
  1.9743214204601576 12.7000683857383194  1.7292834281514509   T   T   T
  8.1725947172854614  7.1586880455854951  8.4232488031646700   F   F   F
  1.9477544866492007 17.0869280424368277  1.7535779813568040   T   T   T
 12.1616599155704979 17.0887972901208691  4.9245421068346769   T   T   T
 18.3274178762770035  7.1586880455854951 11.6334811983650788   F   F   F
 12.1421532410292841 12.7066825683732656  4.9435221885334579   T   T   T
 18.3274178762770035  2.7725725698066146 11.6334811983650788   F   F   F
  8.2153166660147221  0.1029381220613197  8.3269034275119509   F   F   F
  1.9395064929768218 10.0341987374534298  1.6413267603352724   F   F   F
  8.2153166660147221  9.8283224933307913  8.3269034275119509   F   F   F
  1.9396954223617280 19.7567325007815064  1.6426345735271353   T   T   T
 12.1018412565043256 19.7552483749267331  5.0468833964690729   T   T   T
 18.3701398250062660  9.8283224933307913 11.7298265740177978   F   F   F
 12.0943296519683656 10.0341987374534298  5.0442499068413102   F   F   F
 18.3701398250062660  0.1029381220613197 11.7298265740177978   F   F   F
  6.5887154352565247  0.7852118051446575 12.8897032740910973   F   F   F
  3.5661077237350187 10.7164724205367676  6.2041266069144205   F   F   F
  6.5887154352565247  9.1460488102474535 12.8897032740910973   F   F   F
  3.6329653135501823 19.0973036425526423  6.2062905673372022   T   T   T
 13.7121878003302751 19.0776951577786917  0.4780686053261477   T   T   T
 16.7435385942480686  9.1460488102474535  7.1670267274386505   F   F   F
 13.7209308827265630 10.7164724205367676  0.4814500602620672   F   F   F
 16.7435385942480686  0.7852118051446575  7.1670267274386505   F   F   F
  6.5595384633812213 18.9586082647485128 10.8083673762662151   T   T   T
  3.5614151128380791  9.0137536510646292  4.1293696433153393   F   F   F
  6.5934080461534652 10.8487675797195919 10.8149463104919210   F   F   F
  3.5614151128380791  0.9175069643274809  4.1293696433153393   F   F   F
 13.7162382718296225  0.9175069643274809  2.5562070238612433   F   F   F
 16.7482312051450108 10.8487675797195919  9.2417836910378259   F   F   F
 13.7162382718296225  9.0137536510646292  2.5562070238612433   F   F   F
 16.7779177922710900 18.9490394266079214  9.2409283785708709   T   T   T
  5.1875978346380416  1.3228882597357992 10.7264487216491453   F   F   F
  4.9672253243535023 11.2541488751279086  4.0408720544725618   F   F   F
  5.1875978346380416  8.6083723556563125 10.7264487216491453   F   F   F
  4.9779266937422166 18.5371360329819694  4.0340574297759453   T   T   T
 15.0953896408651769 18.5332856339254555  2.6545462384601093   T   T   T
 15.3424209936295863  8.6083723556563125  9.3302812798806034   F   F   F
 15.1220484833450453 11.2541488751279086  2.6447046127040204   F   F   F
 15.3424209936295863  1.3228882597357992  9.3302812798806034   F   F   F
  5.9208478308271770  2.5261984263753923  1.3881965166552193   F   F   F
  4.2334975603010623 12.4610411022400136  8.0710849316618560   T   T   T
  5.9208478308271770  7.4050621890167188  1.3881965166552193   F   F   F
  4.0876631006502295 17.3280653300640743  8.0847143877636185   T   T   T
 14.4565387930935199 17.3369290881806535 11.9952478265562785   T   T   T
 16.0756709898187218  7.4050621890167188  5.2973801505213629   F   F   F
 14.4050087287572897 12.4659476736683814 11.9916899885489681   T   T   T
 16.0756709898187218  2.5261984263753923  5.2973801505213629   F   F   F
  4.0830782392452933  0.8506554447103878  0.3887956446629249   F   F   F
  6.0717449197462505 10.7819160601024979  7.0743723118395074   F   F   F
  4.0830782392452933  9.0806051706817232  0.3887956446629249   F   F   F
  6.1093826311118979 18.8227389644618945  7.2092891938716255   T   T   T
 16.2292816278222922 19.0657656930085224 13.0156752036373522   T   T   T
 14.2379013982368381  9.0806051706817232  6.2967810225136578   F   F   F
 16.2265680787377953 10.7819160601024979 12.9823576896902395   F   F   F
 14.2379013982368381  0.8506554447103878  6.2967810225136578   F   F   F
  6.0297217424147993 19.8199434320233259  1.9659273269971054   F   F   F
  4.1251014165767446  9.8886828166312153  8.6515039941735932   F   F   F
  6.0297217424147993  9.9738384141530059  1.9659273269971054   F   F   F
  4.1251014165767446  0.0425777987608954  8.6515039941735932   F   F   F
 14.2799245755682875  0.0425777987608954 11.4052260073561555   F   F   F
 16.1845449014063441  9.9738384141530059  4.7196493401794779   F   F   F
 14.2799245755682875  9.8886828166312153 11.4052260073561555   F   F   F
 16.1845449014063441 19.8199434320233259  4.7196493401794779   F   F   F
  2.2136347901559494  2.5175005587295871  1.2818583479620820   F   F   F
  8.0229143517716448 12.4079550215297534  7.9645760989171270   T   T   T
  2.2136347901559494  7.4137600566625226  1.2818583479620820   F   F   F
  8.2151105967453351 17.3416761553129675  8.0794315929795211   T   T   T
 18.0196182657957316 17.3393570999414237 12.1047950959308537   T   T   T
 12.3684579491474924  7.4137600566625226  5.4037183192145006   F   F   F
 18.0928939751533981 12.4529720002310160 12.1009190873579637   T   T   T
 12.3684579491474924  2.5175005587295871  5.4037183192145006   F   F   F
  1.6881962070130982  0.9207382679108781 12.6129474627524694   F   F   F
  8.4666269519784461 10.8519988833029899  5.9273707955758868   F   F   F
  1.6881962070130982  9.0105223474812313 12.6129474627524694   F   F   F
  8.4241075017006324 18.9200595888267493  5.9450015817441608   T   T   T
 18.6498322583914344 18.9323434264568711  0.7508120863178126   T   T   T
 11.8430193660046434  9.0105223474812313  7.4437825387772794   F   F   F
 18.6214501109699881 10.8519988833029899  0.7582058716006961   F   F   F
 11.8430193660046434  0.9207382679108781  7.4437825387772794   F   F   F
  2.6191221466297452  1.5772552032846385 10.2029786362431807   F   F   F
  7.5357010123617982 11.5085158186767487  3.5174019690665985   F   F   F
  2.6191221466297452  8.3540054121074725 10.2029786362431807   F   F   F
  7.5442677860892413 18.2862490868339336  3.5094731832353041   T   T   T
 17.6769735370496548 18.2946196241026300  3.1398938498348219   T   T   T
 12.7739453056212895  8.3540054121074725  9.8537513652865663   F   F   F
 17.6905241713533421 11.5085158186767487  3.1681746981099845   F   F   F
 12.7739453056212895  1.5772552032846385  9.8537513652865663   F   F   F
  1.5056470413048797 19.0702684469163550 10.5817841386752729   T   T   T
  8.6605141216446260  9.1427877065086367  3.8893856967007774   F   F   F
  1.4943090373469170 10.7197335242755862 10.5749623638772636   F   F   F
  8.6605141216446260  0.7884729088834742  3.8893856967007774   F   F   F
 18.8153372806361716  0.7884729088834742  2.7961909704758057   F   F   F
 11.6491321963384618 10.7197335242755862  9.4817676376524833   F   F   F
 18.8153372806361716  9.1427877065086367  2.7961909704758057   F   F   F
 11.6553671858787773 19.0708489127189971  9.4924201769104002   T   T   T
  4.3968316384186590  2.7045309019182375  8.6446672192582152   F   F   F
  5.7559290302196890 12.6276051069600737  1.9443092765005348   T   T   T
  4.3968316384186590  7.2267297134738726  8.6446672192582152   F   F   F
  5.7647879363861572 17.1561921991200172  1.9543833038928404   T   T   T
 15.9410052103007303 17.1542204487352521  4.7100055086521921   T   T   T
 14.5516547974102028  7.2267297134738726 11.4120627822715335   F   F   F
 15.9133119015472051 12.6383546376761053  4.7199634478648367   T   T   T
 14.5516547974102028  2.7045309019182375 11.4120627822715335   F   F   F
 10.2098376246720139 16.8098875667491292  9.5775748820824393   T   T   T
  0.0850379718339152  7.0141658028945288  2.8615498313442469   F   F   F
 10.1310491342902296 13.0195031772792333  9.5411174235763898   T   T   T
  0.0850379718339152  2.9170948124975822  2.8615498313442469   F   F   F
 10.2398611308254601  2.9170948124975822  3.8240268358323357   F   F   F
 20.1867111712523482 12.8248902718719098 10.4797833289055138   T   T   T
 10.2398611308254601  7.0141658028945288  3.8240268358323357   F   F   F
 20.1379409269961371 17.0262973693842952 10.5251046281834082   T   T   T
  7.4519110126646941 16.5513054838667735 10.3958601474984889   T   T   T
  2.4846705705810739  6.6155995192168131  3.8215753922960478   F   F   F
  7.6450215303570852 13.2217036094107776 10.4454145168785573   T   T   T
  2.4846705705810739  3.3156610961752970  3.8215753922960478   F   F   F
 12.6394937295726173  3.3156610961752970  2.8640012748805352   F   F   F
 17.7361317332268946 13.2748596495657001  9.5920285667492173   T   T   T
 12.6394937295726173  6.6155995192168131  2.8640012748805352   F   F   F
 17.7450557425178879 16.5080364793566616  9.5793276987899816   T   T   T
  8.4624996204399583 14.8678856388416527  8.3744196644762230   T   T   T
  1.5419329197154532  4.9656303076960553  1.9688022888379906   F   F   F
 11.6967560787069971  4.9656303076960553  4.7167743783385925   F   F   F
 18.7781601873676074 14.9000045500062299 11.4071573712628886   T   T   T
  6.3897216507612686 17.1847325605373555 12.7505557257799342   T   T   T
  3.7059346158871325  7.2425982351504699  6.0879969914885113   F   F   F
  6.4484558331112121 12.6426639545866752 12.7542319803757174   T   T   T
  3.7059346158871325  2.6886623802416403  6.0879969914885113   F   F   F
 13.8607577748786781  2.6886623802416403  0.5975796756880712   F   F   F
 16.5913621329158012 12.6167641604368583  7.2841329731644961   T   T   T
 13.8607577748786781  7.2425982351504699  0.5975796756880712   F   F   F
 16.6075159574901434 17.1831240791795494  7.2746408165092564   T   T   T
  4.8507156843328900 16.9209080025668790 10.6165714411437051   T   T   T
  5.1270102565117828  6.8928686523636049  3.8857134349154596   F   F   F
  4.9981506355794734 12.9497893424788799 10.5737111448542898   T   T   T
  5.1270102565117828  3.0383919630285057  3.8857134349154596   F   F   F
 15.2818334155033284  3.0383919630285057  2.7998632322611234   F   F   F
 15.0855821933321295 12.8625209779785550  9.4375403740343256   T   T   T
 15.2818334155033284  6.8928686523636049  2.7998632322611234   F   F   F
 15.1151998511268868 16.9285854183917053  9.4351623638376125   T   T   T
  5.9633450679702591 14.9017686082573366  0.6642445703419546   T   T   T
  4.1584246617385503  4.9656303076960553  7.3574447498228954   F   F   F
 14.3132478207300924  4.9656303076960553 12.6992852517067583   F   F   F
 16.2411886606215461 14.8956070087151868  6.0018043437807682   T   T   T
  3.9465639762365585 16.5539022748069122  0.1088572251395040   T   T   T
  6.1734543920290044  6.6085914233823377  6.7692293982920377   F   F   F
  3.9668527436734937 13.2386517129823140  0.0722332449412400   T   T   T
  6.1734543920290044  3.3226691920097720  6.7692293982920377   F   F   F
 16.3282775510205482  3.3226691920097720 13.2875006032377101   F   F   F
 14.1519656365191473 13.3315230845340444  6.5676059030691833   T   T   T
 16.3282775510205482  6.6085914233823377 13.2875006032377101   F   F   F
 14.1690162675304876 16.4585257109625296  6.5510299605015705   T   T   T
  1.8763248409221898 14.8965078945945049  0.2737135213162192   T   T   T
  8.2628481081252829  4.9656303076960553  6.9524502333987286   F   F   F
 18.4176712671168268  4.9656303076960553 13.1042797681310184   F   F   F
 12.0130112874924695 14.9053892684154015  6.4164627685293469   T   T   T
  1.5924119993507377 17.2628100542060992 12.5029924471034715   T   T   T
  8.5131568979229311  7.3415004446393679  5.8058209428476975   F   F   F
  1.6096885465101158 12.5422961981913748 12.4766199858927411   T   T   T
  8.5131568979229311  2.5897601707527422  5.8058209428476975   F   F   F
 18.6679800569143310  2.5897601707527422  0.8797557243288845   F   F   F
 11.8654739339983681 12.4929187677763913  7.5543734976858703   T   T   T
 18.6679800569143310  7.3415004446393679  0.8797557243288845   F   F   F
 11.9117640191380669 17.3270793196601751  7.5428276249072352   T   T   T
  2.3355812560462690 16.6101232894872801  9.9936331459549717   T   T   T
  7.6891086568283837  6.7513042184734262  3.3094339217652693   F   F   F
  2.4361532013572593 13.1067769334483888  9.9731984826905204   T   T   T
  7.6891086568283837  3.1799563969186848  3.3094339217652693   F   F   F
 17.8439318158197828  3.1799563969186848  3.3761427454113133   F   F   F
 12.5707913372272291 13.1433555930652641 10.1306028409895141   T   T   T
 17.8439318158197828  6.7513042184734262  3.3761427454113133   F   F   F
 12.6213494796128440 16.6605134805877491 10.1184287567452991   T   T   T
  4.1084981428571439 14.9030249708382101  9.0121416055481447   T   T   T
  6.0281749005281000  4.9656303076960553  2.2907179157230457   F   F   F
 16.1829980595196439  4.9656303076960553  4.3948587514535369   F   F   F
 14.4385816149511328 14.8965555402880199 10.9663017020939222   T   T   T
  8.6114921007489755  1.4146856099378582  9.1990931219956522   F   F   F
  1.5433310582425686 11.3459462253299677  2.5135164548190696   F   F   F
  8.6114921007489755  8.5165750054542517  9.1990931219956522   F   F   F
  1.5437677897700461 18.4538578131746114  2.5317847107106215   T   T   T
 11.6879666404073976 18.4512624443057476  4.1690291139938100   T   T   T
 18.7663152597405194  8.5165750054542517 10.8576368795340965   F   F   F
 11.6981542172341122 11.3459462253299677  4.1720602123575130   F   F   F
 18.7663152597405194  1.4146856099378582 10.8576368795340965   F   F   F
  6.5543253377466240  0.6425666935286518 11.2753241723876716   F   F   F
  3.6004978212449203 10.5738273089207624  4.5897475052110890   F   F   F
  6.5543253377466240  9.2886939218634588 11.2753241723876716   F   F   F
  3.6212604587364763 19.2222813888033244  4.5944059630906331   T   T   T
 13.7363460931344719 19.2208068811637283  2.0940526593968820   T   T   T
 16.7091484967381696  9.2886939218634588  8.7814058291420753   F   F   F
 13.7553209802364638 10.5738273089207624  2.0958291619654932   F   F   F
 16.7091484967381696  0.6425666935286518  8.7814058291420753   F   F   F
  5.6448362218964876  1.0320241432667694  0.8173882092636284   F   F   F
  4.5099869370950563 10.9632847586588795  7.5029648764402106   F   F   F
  5.6448362218964876  8.8992364721253416  0.8173882092636284   F   F   F
  4.5187361724581985 18.7947609292206366  7.5358181742180275   T   T   T
 14.6788905069252085 18.8472059636589790 12.5672702467544077   T   T   T
 15.7996593808880306  8.8992364721253416  5.8681884579129546   F   F   F
 14.6648100960866010 10.9632847586588795 12.5537651250895372   F   F   F
 15.7996593808880306  1.0320241432667694  5.8681884579129546   F   F   F
  2.4881439176978279  1.0483023193839807  0.6417355337127613   F   F   F
  7.6666792412937159 10.9795629347759487  7.3273122008893434   F   F   F
  2.4881439176978279  8.8829582960081304  0.6417355337127613   F   F   F
  7.7311253884292706 18.7179562958137922  7.4055162813079241   T   T   T
 17.8162809543972394 18.8243897098710953 12.7393326161574425   T   T   T
 12.6429670766893718  8.8829582960081304  6.0438411334638209   F   F   F
 17.8215024002852616 10.9795629347759487 12.7294178006404035   F   F   F
 12.6429670766893718  1.0483023193839807  6.0438411334638209   F   F   F
  1.4669611892426841  0.7765305914257938 11.0116839679886329   F   F   F
  8.6878619697488606 10.7077912068179053  4.3261073008120503   F   F   F
  1.4669611892426841  9.1547300239663159 11.0116839679886329   F   F   F
  8.6720399141577804 19.0848874532719144  4.3544509038778099   T   T   T
 18.8491027911025952 19.0882282966485732  2.3557425963344856   T   T   T
 11.6217843482342271  9.1547300239663159  9.0450460335411140   F   F   F
 18.8426851287404027 10.7077912068179053  2.3594693663645319   F   F   F
 11.6217843482342271  0.7765305914257938  9.0450460335411140   F   F   F
  4.0843573639185831  1.3979692287630687  9.5406986308418436   F   F   F
  6.0704657950729608 11.3292298441551793  2.8551219636652609   F   F   F
  4.0843573639185831  8.5332913866290419  9.5406986308418436   F   F   F
  6.0808509174560568 18.4625319222747137  2.8495844774382681   T   T   T
 16.2215668992848272 18.4713551144053447  3.8188167826399164   T   T   T
 14.2391805229101269  8.5332913866290419 10.5160313706879034   F   F   F
 16.2252889540645029 11.3292298441551793  3.8304547035113221   F   F   F
 14.2391805229101269  1.3979692287630687 10.5160313706879034   F   F   F
  8.6219225825553441 16.2473885375414397  9.2965971667822753   T   T   T
  1.5763273773718030  6.5092533948319806  2.4761345411157811   F   F   F
  8.5482691817779592 13.4184557000889928  9.1108073117402686   T   T   T
  1.5763273773718030  3.4220072205601295  2.4761345411157811   F   F   F
 11.7311505363633461  3.4220072205601295  4.2094421260608010   F   F   F
 18.7113150457218644 13.3565358157074314 10.8975852896647112   T   T   T
 11.7311505363633461  6.5092533948319806  4.2094421260608010   F   F   F
 18.6796260295344112 16.4463159193892992 10.9131788923872453   T   T   T
  6.3155448521052788 17.3957363404061027 11.1389118561761702   T   T   T
  3.7180465794847750  7.4382500466046224  4.4764479790710539   F   F   F
  6.4196459954680369 12.4246781902327097 11.1461589848886344   T   T   T
  3.7180465794847750  2.4930105687874886  4.4764479790710539   F   F   F
 13.8728697384763198  2.4930105687874886  2.2091286881055288   F   F   F
 16.5542324326116059 12.4141807746501041  8.8924189134677203   T   T   T
 13.8728697384763198  7.4382500466046224  2.2091286881055288   F   F   F
 16.5746626864645741 17.3845762003143456  8.8838628608570342   T   T   T
  5.5104642816492717 16.4489534616344812  0.5291210090422591   T   T   T
  4.6170079927443011  6.5095434530137322  7.2176998349999728   F   F   F
  5.5254030332479527 13.3539578960329894  0.5215296615818911   T   T   T
  4.6170079927443011  3.4217171623783784  7.2176998349999728   F   F   F
 14.7718311517358440  3.4217171623783784 12.8390301665297759   F   F   F
 15.7178710109401116 13.3716598179080606  6.1389353158689959   T   T   T
 14.7718311517358440  6.5095434530137322 12.8390301665297759   F   F   F
 15.7347940667122757 16.4270371502171812  6.1290032456747285   T   T   T
  2.3456963652073974 16.4499801915558841  0.3186347454059448   T   T   T
  7.7766577971384301  6.5146392987053847  6.9908051240805120   F   F   F
  2.3634360626916218 13.3497031480269950  0.2966006614762687   T   T   T
  7.7766577971384301  3.4166213166867263  6.9908051240805120   F   F   F
 17.9314809561299739  3.4166213166867263 13.0659248774492358   F   F   F
 12.5480572933418664 13.3724635747290872  6.3581122500546439   T   T   T
 17.9314809561299739  6.5146392987053847 13.0659248774492358   F   F   F
 12.5647708370698297 16.4344359294689717  6.3456533825499468   T   T   T
  1.3312646653044813 17.4923845569060674 10.9119636428685354   T   T   T
  8.7665009375840501  7.5582981210348308  4.2126116944586931   F   F   F
  1.3621681748663126 12.3053202678207541 10.8846165383820068   T   T   T
  8.7665009375840501  2.3729624943572789  4.2126116944586931   F   F   F
 18.9213240965755958  2.3729624943572789  2.4729649727178891   F   F   F
 11.5638754056728779 12.2989935512800379  9.1270274392646957   T   T   T
 18.9213240965755958  7.5582981210348308  2.4729649727178891   F   F   F
 11.6097321841821497 17.5083871979996424  9.1159121914411116   T   T   T
  3.8519135350640754 16.4499641698861261  9.4249171734266852   T   T   T
  6.1940601493177123  6.5178291587723436  2.7207962266042216   F   F   F
  3.9406295322872422 13.3435469289075233  9.4059860508829782   T   T   T
  6.1940601493177123  3.4134314566197661  2.7207962266042216   F   F   F
 16.3488833083092580  3.4134314566197661  3.9647804405723610   F   F   F
 14.1336093385485082 13.3396300346998835 10.6614170146884621   T   T   T
 16.3488833083092580  6.5178291587723436  3.9647804405723610   F   F   F
 14.1699247735848051 16.4622401128557421 10.6668142887265009   T   T   T
 11.0325703454274962 14.9535049178604886 10.6036602362298531   T   T   T
  9.1174108902121098 15.1446864053862917 10.5328002518979229   T   T   T
 11.9750480214132651 14.9172162854775348 12.2057576684127955   T   T   T
