 O Si Nb  H 
 1.0000000000000000
    20.3096463179830877    0.0000000000000000    0.0000000000000000
     0.0000000000000000   19.8625212307842212    0.0000000000000000
     0.0000000000000000    0.0000000000000000   13.3711533343531652
 O   Si  Nb  H  
 192  96   1   2
Selective dynamics
Cartesian
 10.2074441472539608  1.4455920571236711  9.4604249957828941   F   F   F
 20.2570253297206690 11.3768526725157813  2.7748483286063115   F   F   F
 10.2074441472539608  8.4856685582684399  9.4604249957828941   F   F   F
 20.2566124126800347 18.4156005881574600  2.7752677627029367   F   F   F
 10.1070402830222879 18.4270308436432693  3.9033288876729055   F   F   F
  0.0526209882624183  8.4856685582684399 10.5963050057468546   F   F   F
 10.1022021707291270 11.3768526725157813  3.9107283385702711   F   F   F
  0.0526209882624183  1.4455920571236711 10.5963050057468546   F   F   F
  7.8574470561008258  1.3782397496433998 10.6412964171056164   F   F   F
  2.2973761028907185 11.3095003650355110  3.9557197499290346   F   F   F
  7.8574470561008258  8.5530208657487101 10.6412964171056164   F   F   F
  2.2951069037667691 18.4865901267956225  3.9573893555937332   F   F   F
 12.4504626368325386 18.4884858611308900  2.7228226916203395   F   F   F
 18.0122702150923679  8.5530208657487101  9.4154335844241306   F   F   F
 12.4521992618822619 11.3095003650355110  2.7298569172475480   F   F   F
 18.0122702150923679  1.3782397496433998  9.4154335844241306   F   F   F
  8.1725947172854614  2.7725725698066146  8.4232488031646700   F   F   F
  1.9867211822018318 12.7061988876175658  1.7434585553823312   F   F   F
  8.1725947172854614  7.1586880455854951  8.4232488031646700   F   F   F
  1.9847141718597183 17.0881547464999208  1.7421839465246201   F   F   F
 12.1609753410173944 17.0923436484070415  4.9342286275333924   F   F   F
 18.3274178762770035  7.1586880455854951 11.6334811983650788   F   F   F
 12.1532708605261970 12.7042581075531889  4.9383901173316458   F   F   F
 18.3274178762770035  2.7725725698066146 11.6334811983650788   F   F   F
  8.2153166660147221  0.1029381220613197  8.3269034275119509   F   F   F
  1.9395064929768218 10.0341987374534298  1.6413267603352724   F   F   F
  8.2153166660147221  9.8283224933307913  8.3269034275119509   F   F   F
  1.9392426493764847 19.7581781334233355  1.6400627599705520   F   F   F
 12.0977184008570475 19.7578498784327046  5.0446449631406347   F   F   F
 18.3701398250062660  9.8283224933307913 11.7298265740177978   F   F   F
 12.0943296519683656 10.0341987374534298  5.0442499068413102   F   F   F
 18.3701398250062660  0.1029381220613197 11.7298265740177978   F   F   F
  6.5887154352565247  0.7852118051446575 12.8897032740910973   F   F   F
  3.5661077237350187 10.7164724205367676  6.2041266069144205   F   F   F
  6.5887154352565247  9.1460488102474535 12.8897032740910973   F   F   F
  3.5610206997129237 19.0794475406830983  6.2035338125119202   F   F   F
 13.7256313523318862 19.0814349868653998  0.4809703418179718   F   F   F
 16.7435385942480686  9.1460488102474535  7.1670267274386505   F   F   F
 13.7209308827265630 10.7164724205367676  0.4814500602620672   F   F   F
 16.7435385942480686  0.7852118051446575  7.1670267274386505   F   F   F
  6.6005279911093471 18.9419346738198691 10.8131241068133086   F   F   F
  3.5614151128380791  9.0137536510646292  4.1293696433153393   F   F   F
  6.5934080461534652 10.8487675797195919 10.8149463104919210   F   F   F
  3.5614151128380791  0.9175069643274809  4.1293696433153393   F   F   F
 13.7162382718296225  0.9175069643274809  2.5562070238612433   F   F   F
 16.7482312051450108 10.8487675797195919  9.2417836910378259   F   F   F
 13.7162382718296225  9.0137536510646292  2.5562070238612433   F   F   F
 16.7450146615663833 18.9463394524064981  9.2447008669804909   F   F   F
  5.1875978346380416  1.3228882597357992 10.7264487216491453   F   F   F
  4.9672253243535023 11.2541488751279086  4.0408720544725618   F   F   F
  5.1875978346380416  8.6083723556563125 10.7264487216491453   F   F   F
  4.9676150755611790 18.5404925920014172  4.0422165227551927   F   F   F
 15.1227608221891980 18.5396455629859531  2.6450021755290023   F   F   F
 15.3424209936295863  8.6083723556563125  9.3302812798806034   F   F   F
 15.1220484833450453 11.2541488751279086  2.6447046127040204   F   F   F
 15.3424209936295863  1.3228882597357992  9.3302812798806034   F   F   F
  5.9208478308271770  2.5261984263753923  1.3881965166552193   F   F   F
  4.2367414410879585 12.4576457149657998  8.0724497114193223   F   F   F
  5.9208478308271770  7.4050621890167188  1.3881965166552193   F   F   F
  4.2440656680001618 17.3400296040641315  8.0701684551134178   F   F   F
 14.3937650307718386 17.3398807276027505 11.9835359521704934   F   F   F
 16.0756709898187218  7.4050621890167188  5.2973801505213629   F   F   F
 14.3941533260839414 12.4579220997947093 11.9833626398016388   F   F   F
 16.0756709898187218  2.5261984263753923  5.2973801505213629   F   F   F
  4.0830782392452933  0.8506554447103878  0.3887956446629249   F   F   F
  6.0717449197462505 10.7819160601024979  7.0743723118395074   F   F   F
  4.0830782392452933  9.0806051706817232  0.3887956446629249   F   F   F
  6.0674912131082488 19.0265340190828276  7.0656119180908838   F   F   F
 16.2302958247576292 19.0127175759849152 12.9823033073060667   F   F   F
 14.2379013982368381  9.0806051706817232  6.2967810225136578   F   F   F
 16.2265680787377953 10.7819160601024979 12.9823576896902395   F   F   F
 14.2379013982368381  0.8506554447103878  6.2967810225136578   F   F   F
  6.0297217424147993 19.8199434320233259  1.9659273269971054   F   F   F
  4.1251014165767446  9.8886828166312153  8.6515039941735932   F   F   F
  6.0297217424147993  9.9738384141530059  1.9659273269971054   F   F   F
  4.1251014165767446  0.0425777987608954  8.6515039941735932   F   F   F
 14.2799245755682875  0.0425777987608954 11.4052260073561555   F   F   F
 16.1845449014063441  9.9738384141530059  4.7196493401794779   F   F   F
 14.2799245755682875  9.8886828166312153 11.4052260073561555   F   F   F
 16.1845449014063441 19.8199434320233259  4.7196493401794779   F   F   F
  2.2136347901559494  2.5175005587295871  1.2818583479620820   F   F   F
  7.9292849311456521 12.4441992640185148  7.9941275404342678   F   F   F
  2.2136347901559494  7.4137600566625226  1.2818583479620820   F   F   F
  7.9208153929848866 17.3620084636657310  7.9860500718424543   F   F   F
 18.1021858475906434 17.3455881773873237 12.0885945982933762   F   F   F
 12.3684579491474924  7.4137600566625226  5.4037183192145006   F   F   F
 18.1023604451178421 12.4466122586977885 12.0863798168073497   F   F   F
 12.3684579491474924  2.5175005587295871  5.4037183192145006   F   F   F
  1.6881962070130982  0.9207382679108781 12.6129474627524694   F   F   F
  8.4666269519784461 10.8519988833029899  5.9273707955758868   F   F   F
  1.6881962070130982  9.0105223474812313 12.6129474627524694   F   F   F
  8.4673413140531721 18.9468822867638309  5.9254059552561777   F   F   F
 18.6242961711494175 18.9416712571335282  0.7582325334161546   F   F   F
 11.8430193660046434  9.0105223474812313  7.4437825387772794   F   F   F
 18.6214501109699881 10.8519988833029899  0.7582058716006961   F   F   F
 11.8430193660046434  0.9207382679108781  7.4437825387772794   F   F   F
  2.6191221466297452  1.5772552032846385 10.2029786362431807   F   F   F
  7.5357010123617982 11.5085158186767487  3.5174019690665985   F   F   F
  2.6191221466297452  8.3540054121074725 10.2029786362431807   F   F   F
  7.5364567334330266 18.2876327679831583  3.5137082535321635   F   F   F
 17.6911205942893126 18.2854034801761749  3.1677181090345425   F   F   F
 12.7739453056212895  8.3540054121074725  9.8537513652865663   F   F   F
 17.6905241713533421 11.5085158186767487  3.1681746981099845   F   F   F
 12.7739453056212895  1.5772552032846385  9.8537513652865663   F   F   F
  1.4960523624051716 19.0738692824244609 10.5761421474398123   F   F   F
  8.6605141216446260  9.1427877065086367  3.8893856967007774   F   F   F
  1.4943090373469170 10.7197335242755862 10.5749623638772636   F   F   F
  8.6605141216446260  0.7884729088834742  3.8893856967007774   F   F   F
 18.8153372806361716  0.7884729088834742  2.7961909704758057   F   F   F
 11.6491321963384618 10.7197335242755862  9.4817676376524833   F   F   F
 18.8153372806361716  9.1427877065086367  2.7961909704758057   F   F   F
 11.6325828719617359 19.0716940461572122  9.4831624402900783   F   F   F
  4.3968316384186590  2.7045309019182375  8.6446672192582152   F   F   F
  5.7509036212471365 12.6318564586315709  1.9566113309587689   F   F   F
  4.3968316384186590  7.2267297134738726  8.6446672192582152   F   F   F
  5.7559680063382803 17.1586468891877928  1.9601153485886320   F   F   F
 15.9202233126774253 17.1560892607492015  4.7254940180833902   F   F   F
 14.5516547974102028  7.2267297134738726 11.4120627822715335   F   F   F
 15.9173032788351048 12.6374329585253946  4.7250598751237449   F   F   F
 14.5516547974102028  2.7045309019182375 11.4120627822715335   F   F   F
 10.0900086890797454 16.9056507442523341  9.5295189930850626   F   F   F
  0.0850379718339152  7.0141658028945288  2.8615498313442469   F   F   F
 10.0994307360319748 12.8902745737580275  9.5364714853154329   F   F   F
  0.0850379718339152  2.9170948124975822  2.8615498313442469   F   F   F
 10.2398611308254601  2.9170948124975822  3.8240268358323357   F   F   F
 20.2421646657205017 12.8593822031019176 10.5186613737715167   F   F   F
 10.2398611308254601  7.0141658028945288  3.8240268358323357   F   F   F
 20.2368310150549995 16.9370350112620081 10.5155839261869541   F   F   F
  7.6908702268330549 16.5386485560675176 10.5191081318365640   F   F   F
  2.4846705705810739  6.6155995192168131  3.8215753922960478   F   F   F
  7.7020914251855830 13.2511018353173835 10.5269637056476277   F   F   F
  2.4846705705810739  3.3156610961752970  3.8215753922960478   F   F   F
 12.6394937295726173  3.3156610961752970  2.8640012748805352   F   F   F
 17.8486164074519031 13.2359741491790270  9.5416550816624035   F   F   F
 12.6394937295726173  6.6155995192168131  2.8640012748805352   F   F   F
 17.8402032482554738 16.5567211812464379  9.5454573306712653   F   F   F
  8.5670420538394225 14.8999524092869926  8.5965925905751259   F   F   F
  1.5419329197154532  4.9656303076960553  1.9688022888379906   F   F   F
 11.6967560787069971  4.9656303076960553  4.7167743783385925   F   F   F
 18.7635104983825904 14.8962514834546464 11.4003275860537325   F   F   F
  6.4502404606652579 17.1750798606158561 12.7740549533991619   F   F   F
  3.7059346158871325  7.2425982351504699  6.0879969914885113   F   F   F
  6.4506574145449687 12.6180280914050922 12.7732171472320886   F   F   F
  3.7059346158871325  2.6886623802416403  6.0879969914885113   F   F   F
 13.8607577748786781  2.6886623802416403  0.5975796756880712   F   F   F
 16.6078669602532756 12.6169104582989906  7.2819224128708422   F   F   F
 13.8607577748786781  7.2425982351504699  0.5975796756880712   F   F   F
 16.6066208912503512 17.1772617248180488  7.2834041205165700   F   F   F
  5.0509577236130463 16.8057873619608316 10.5573635369071646   F   F   F
  5.1270102565117828  6.8928686523636049  3.8857134349154596   F   F   F
  5.0626634436716680 12.9961666436987997 10.5509903138695815   F   F   F
  5.1270102565117828  3.0383919630285057  3.8857134349154596   F   F   F
 15.2818334155033284  3.0383919630285057  2.7998632322611234   F   F   F
 15.2055268983669798 12.9864412212389375  9.4931468804427368   F   F   F
 15.2818334155033284  6.8928686523636049  2.7998632322611234   F   F   F
 15.1965526162086810 16.8140384609672822  9.4907299040102178   F   F   F
  6.0115268514685765 14.8959976781327263  0.6650559365372144   F   F   F
  4.1584246617385503  4.9656303076960553  7.3574447498228954   F   F   F
 14.3132478207300924  4.9656303076960553 12.6992852517067583   F   F   F
 16.1659059553929012 14.8967429745177640  6.0164047150578437   F   F   F
  3.9861653058564182 16.5285890411346337  0.0874127191899841   F   F   F
  6.1734543920290044  6.6085914233823377  6.7692293982920377   F   F   F
  3.9858103216992662 13.2653966256668152  0.0821634318773332   F   F   F
  6.1734543920290044  3.3226691920097720  6.7692293982920377   F   F   F
 16.3282775510205482  3.3226691920097720 13.2875006032377101   F   F   F
 14.1423571583154377 13.2630800358322940  6.5977414894617201   F   F   F
 16.3282775510205482  6.6085914233823377 13.2875006032377101   F   F   F
 14.1428689471694025 16.5288249466759680  6.5973099104066302   F   F   F
  1.8887027697321053 14.8963674816472853  0.2672676805244846   F   F   F
  8.2628481081252829  4.9656303076960553  6.9524502333987286   F   F   F
 18.4176712671168268  4.9656303076960553 13.1042797681310184   F   F   F
 12.0470742097661105 14.8976640858681559  6.4371035783402704   F   F   F
  1.6531954037376995 17.2764351946309205 12.4963870044174250   F   F   F
  8.5131568979229311  7.3415004446393679  5.8058209428476975   F   F   F
  1.6516971144038197 12.5110914655883061 12.5020969173727057   F   F   F
  8.5131568979229311  2.5897601707527422  5.8058209428476975   F   F   F
 18.6679800569143310  2.5897601707527422  0.8797557243288845   F   F   F
 11.8163336665634393 12.5042789725349817  7.5563933847236662   F   F   F
 18.6679800569143310  7.3415004446393679  0.8797557243288845   F   F   F
 11.8160315092791013 17.2880536668471905  7.5553361489870019   F   F   F
  2.4809669437359640 16.6895973922585625 10.0007613746695867   F   F   F
  7.6891086568283837  6.7513042184734262  3.3094339217652693   F   F   F
  2.4877937327758328 13.1068265215748845 10.0133334724588927   F   F   F
  7.6891086568283837  3.1799563969186848  3.3094339217652693   F   F   F
 17.8439318158197828  3.1799563969186848  3.3761427454113133   F   F   F
 12.6405373200593942 13.1072947694827562 10.0536993231287557   F   F   F
 17.8439318158197828  6.7513042184734262  3.3761427454113133   F   F   F
 12.6322697164888158 16.6873736051769335 10.0570352691640466   F   F   F
  4.1213234006584951 14.8993291841562776  8.9576566857388435   F   F   F
  6.0281749005281000  4.9656303076960553  2.2907179157230457   F   F   F
 16.1829980595196439  4.9656303076960553  4.3948587514535369   F   F   F
 14.2801924377594300 14.8995707917347779 11.0922470563630480   F   F   F
  8.6114921007489755  1.4146856099378582  9.1990931219956522   F   F   F
  1.5433310582425686 11.3459462253299677  2.5135164548190696   F   F   F
  8.6114921007489755  8.5165750054542517  9.1990931219956522   F   F   F
  1.5428436754506445 18.4477615511118174  2.5148541593984590   F   F   F
 11.6999526932234374 18.4477162633486138  4.1670743523422997   F   F   F
 18.7663152597405194  8.5165750054542517 10.8576368795340965   F   F   F
 11.6981542172341122 11.3459462253299677  4.1720602123575130   F   F   F
 18.7663152597405194  1.4146856099378582 10.8576368795340965   F   F   F
  6.5543253377466240  0.6425666935286518 11.2753241723876716   F   F   F
  3.6004978212449203 10.5738273089207624  4.5897475052110890   F   F   F
  6.5543253377466240  9.2886939218634588 11.2753241723876716   F   F   F
  3.6005559312354598 19.2201926844766824  4.5884055093706584   F   F   F
 13.7563619991094424 19.2211977603892024  2.0956398189649694   F   F   F
 16.7091484967381696  9.2886939218634588  8.7814058291420753   F   F   F
 13.7553209802364638 10.5738273089207624  2.0958291619654932   F   F   F
 16.7091484967381696  0.6425666935286518  8.7814058291420753   F   F   F
  5.6448362218964876  1.0320241432667694  0.8173882092636284   F   F   F
  4.5099869370950563 10.9632847586588795  7.5029648764402106   F   F   F
  5.6448362218964876  8.8992364721253416  0.8173882092636284   F   F   F
  4.5081327851327950 18.8356470332174197  7.4990654244605190   F   F   F
 14.6690058174753837 18.8337316768869307 12.5548128949797437   F   F   F
 15.7996593808880306  8.8992364721253416  5.8681884579129546   F   F   F
 14.6648100960866010 10.9632847586588795 12.5537651250895372   F   F   F
 15.7996593808880306  1.0320241432667694  5.8681884579129546   F   F   F
  2.4881439176978279  1.0483023193839807  0.6417355337127613   F   F   F
  7.6666792412937159 10.9795629347759487  7.3273122008893434   F   F   F
  2.4881439176978279  8.8829582960081304  0.6417355337127613   F   F   F
  7.6598830782443859 18.8295441942594763  7.3164435320082397   F   F   F
 17.8245580305009312 18.8135870013174511 12.7301999523512173   F   F   F
 12.6429670766893718  8.8829582960081304  6.0438411334638209   F   F   F
 17.8215024002852616 10.9795629347759487 12.7294178006404035   F   F   F
 12.6429670766893718  1.0483023193839807  6.0438411334638209   F   F   F
  1.4669611892426841  0.7765305914257938 11.0116839679886329   F   F   F
  8.6878619697488606 10.7077912068179053  4.3261073008120503   F   F   F
  1.4669611892426841  9.1547300239663159 11.0116839679886329   F   F   F
  8.6898819402521781 19.0821397384735185  4.3215162635436242   F   F   F
 18.8429289012597252 19.0855732802210944  2.3598897448991791   F   F   F
 11.6217843482342271  9.1547300239663159  9.0450460335411140   F   F   F
 18.8426851287404027 10.7077912068179053  2.3594693663645319   F   F   F
 11.6217843482342271  0.7765305914257938  9.0450460335411140   F   F   F
  4.0843573639185831  1.3979692287630687  9.5406986308418436   F   F   F
  6.0704657950729608 11.3292298441551793  2.8551219636652609   F   F   F
  4.0843573639185831  8.5332913866290419  9.5406986308418436   F   F   F
  6.0716801241978224 18.4634726348191869  2.8567280201457508   F   F   F
 16.2263489578821165 18.4642979981821078  3.8303409043017926   F   F   F
 14.2391805229101269  8.5332913866290419 10.5160313706879034   F   F   F
 16.2252889540645029 11.3292298441551793  3.8304547035113221   F   F   F
 14.2391805229101269  1.3979692287630687 10.5160313706879034   F   F   F
  8.5810727424361222 16.4629738945766277  9.1662587401303721   F   F   F
  1.5763273773718030  6.5092533948319806  2.4761345411157811   F   F   F
  8.5930955202334705 13.3413017455444542  9.1756797780235413   F   F   F
  1.5763273773718030  3.4220072205601295  2.4761345411157811   F   F   F
 11.7311505363633461  3.4220072205601295  4.2094421260608010   F   F   F
 18.7444864956155151 13.3516270403330140 10.8948496366334950   F   F   F
 11.7311505363633461  6.5092533948319806  4.2094421260608010   F   F   F
 18.7407839117478012 16.4407498731833073 10.8954638317704990   F   F   F
  6.4445497848557043 17.3670814314724353 11.1641545327013105   F   F   F
  3.7180465794847750  7.4382500466046224  4.4764479790710539   F   F   F
  6.4490870688351025 12.4256074515066199 11.1640529621774505   F   F   F
  3.7180465794847750  2.4930105687874886  4.4764479790710539   F   F   F
 13.8728697384763198  2.4930105687874886  2.2091286881055288   F   F   F
 16.6044231641578648 12.4245400080551320  8.8932918312214415   F   F   F
 13.8728697384763198  7.4382500466046224  2.2091286881055288   F   F   F
 16.5989869261386964 17.3708708250814432  8.8946725817932055   F   F   F
  5.5440418209251927 16.4376497527301311  0.5363919484324949   F   F   F
  4.6170079927443011  6.5095434530137322  7.2176998349999728   F   F   F
  5.5426580195871118 13.3547091832225586  0.5342976818504870   F   F   F
  4.6170079927443011  3.4217171623783784  7.2176998349999728   F   F   F
 14.7718311517358440  3.4217171623783784 12.8390301665297759   F   F   F
 15.6999342075160264 13.3545596496103407  6.1520261415138586   F   F   F
 14.7718311517358440  6.5095434530137322 12.8390301665297759   F   F   F
 15.7003482166450556 16.4390145564769767  6.1521144118234812   F   F   F
  2.3823665624660775 16.4428498360845943  0.3109712345477720   F   F   F
  7.7766577971384301  6.5146392987053847  6.9908051240805120   F   F   F
  2.3826908103170474 13.3499530703577918  0.3116337979890857   F   F   F
  7.7766577971384301  3.4166213166867263  6.9908051240805120   F   F   F
 17.9314809561299739  3.4166213166867263 13.0659248774492358   F   F   F
 12.5377386226477459 13.3485699881662416  6.3705540149087030   F   F   F
 17.9314809561299739  6.5146392987053847 13.0659248774492358   F   F   F
 12.5384545014433044 16.4461541452751554  6.3683569170441761   F   F   F
  1.3973707192763951 17.4899328981266962 10.9037115853258477   F   F   F
  8.7665009375840501  7.5582981210348308  4.2126116944586931   F   F   F
  1.4006220382421162 12.3025241898734539 10.9079545819037769   F   F   F
  8.7665009375840501  2.3729624943572789  4.2126116944586931   F   F   F
 18.9213240965755958  2.3729624943572789  2.4729649727178891   F   F   F
 11.5662468657429258 12.3036061463875601  9.1481982065132836   F   F   F
 18.9213240965755958  7.5582981210348308  2.4729649727178891   F   F   F
 11.5592273805972994 17.4888544198587041  9.1466326760957166   F   F   F
  3.9687597744409522 16.4493867525980697  9.3988132698557934   F   F   F
  6.1940601493177123  6.5178291587723436  2.7207962266042216   F   F   F
  3.9708957329997432 13.3500173856415429  9.4014238241587833   F   F   F
  6.1940601493177123  3.4134314566197661  2.7207962266042216   F   F   F
 16.3488833083092580  3.4134314566197661  3.9647804405723610   F   F   F
 14.1304176973890954 13.3490913120148509 10.6527849349906969   F   F   F
 16.3488833083092580  6.5178291587723436  3.9647804405723610   F   F   F
 14.1252136389072369 16.4499109868667510 10.6534820943451116   F   F   F
  8.6228979260145113 14.8858344110880907  6.1060961652996646   F   F   F
  9.1683118   15.24526467   4.39516459                         T   T   T
  8.23304639  14.62301065   4.29370856                         T   T   T
