 O Si Ti  H 
 1.0000000000000000
    20.3096463179830877    0.0000000000000000    0.0000000000000000
     0.0000000000000000   19.8625212307842212    0.0000000000000000
     0.0000000000000000    0.0000000000000000   13.3711533343531652
 O   Si  Ti  H  
 192  96   1   2
Selective dynamics
Cartesian
 10.2074441472539608  1.4455920571236711  9.4604249957828941   F   F   F
 20.2570253297206690 11.3768526725157813  2.7748483286063115   F   F   F
 10.2074441472539608  8.4856685582684399  9.4604249957828941   F   F   F
 20.2594774314805086 18.4187633845281340  2.7798636177657494   T   T   T
 10.1190465968643668 18.4525466380612357  3.8793252690755797   T   T   T
  0.0526209882624183  8.4856685582684399 10.5963050057468546   F   F   F
 10.1022021707291270 11.3768526725157813  3.9107283385702711   F   F   F
  0.0526209882624183  1.4455920571236711 10.5963050057468546   F   F   F
  7.8574470561008258  1.3782397496433998 10.6412964171056164   F   F   F
  2.2973761028907185 11.3095003650355110  3.9557197499290346   F   F   F
  7.8574470561008258  8.5530208657487101 10.6412964171056164   F   F   F
  2.2997245429191890 18.4878274715405695  3.9624474532286973   T   T   T
 12.4637291299035624 18.4835461873720064  2.7218940871162092   T   T   T
 18.0122702150923679  8.5530208657487101  9.4154335844241306   F   F   F
 12.4521992618822619 11.3095003650355110  2.7298569172475480   F   F   F
 18.0122702150923679  1.3782397496433998  9.4154335844241306   F   F   F
  8.1725947172854614  2.7725725698066146  8.4232488031646700   F   F   F
  1.9868876273962808 12.7059359161519065  1.7427614393610549   T   T   T
  8.1725947172854614  7.1586880455854951  8.4232488031646700   F   F   F
  1.9871542001157239 17.0845570955199939  1.7550456335473466   T   T   T
 12.1734344144735633 17.1024749418521651  4.9335551837120164   T   T   T
 18.3274178762770035  7.1586880455854951 11.6334811983650788   F   F   F
 12.1777083413767961 12.6948409529329851  4.9356649107450696   T   T   T
 18.3274178762770035  2.7725725698066146 11.6334811983650788   F   F   F
  8.2153166660147221  0.1029381220613197  8.3269034275119509   F   F   F
  1.9395064929768218 10.0341987374534298  1.6413267603352724   F   F   F
  8.2153166660147221  9.8283224933307913  8.3269034275119509   F   F   F
  1.9432586915334862 19.7554422638939791  1.6401733668459957   T   T   T
 12.1011433420593626 19.7614329732965395  5.0423466559353827   T   T   T
 18.3701398250062660  9.8283224933307913 11.7298265740177978   F   F   F
 12.0943296519683656 10.0341987374534298  5.0442499068413102   F   F   F
 18.3701398250062660  0.1029381220613197 11.7298265740177978   F   F   F
  6.5887154352565247  0.7852118051446575 12.8897032740910973   F   F   F
  3.5661077237350187 10.7164724205367676  6.2041266069144205   F   F   F
  6.5887154352565247  9.1460488102474535 12.8897032740910973   F   F   F
  3.5761654528731404 19.0803515294841795  6.2051994955041385   T   T   T
 13.7258379465404960 19.0806558626079088  0.4778600686683691   T   T   T
 16.7435385942480686  9.1460488102474535  7.1670267274386505   F   F   F
 13.7209308827265630 10.7164724205367676  0.4814500602620672   F   F   F
 16.7435385942480686  0.7852118051446575  7.1670267274386505   F   F   F
  6.5921081014174447 18.9426705790354966 10.8111116395615543   T   T   T
  3.5614151128380791  9.0137536510646292  4.1293696433153393   F   F   F
  6.5934080461534652 10.8487675797195919 10.8149463104919210   F   F   F
  3.5614151128380791  0.9175069643274809  4.1293696433153393   F   F   F
 13.7162382718296225  0.9175069643274809  2.5562070238612433   F   F   F
 16.7482312051450108 10.8487675797195919  9.2417836910378259   F   F   F
 13.7162382718296225  9.0137536510646292  2.5562070238612433   F   F   F
 16.7457758388898910 18.9451274282113609  9.2415048271624762   T   T   T
  5.1875978346380416  1.3228882597357992 10.7264487216491453   F   F   F
  4.9672253243535023 11.2541488751279086  4.0408720544725618   F   F   F
  5.1875978346380416  8.6083723556563125 10.7264487216491453   F   F   F
  4.9732683833577029 18.5419511117727467  4.0437720916127411   T   T   T
 15.1352750139040388 18.5468267683448573  2.6350072966039439   T   T   T
 15.3424209936295863  8.6083723556563125  9.3302812798806034   F   F   F
 15.1220484833450453 11.2541488751279086  2.6447046127040204   F   F   F
 15.3424209936295863  1.3228882597357992  9.3302812798806034   F   F   F
  5.9208478308271770  2.5261984263753923  1.3881965166552193   F   F   F
  4.2387506717190719 12.4580293691312871  8.0741131255188598   T   T   T
  5.9208478308271770  7.4050621890167188  1.3881965166552193   F   F   F
  4.2168760351623220 17.3356579767371670  8.0796549750918949   T   T   T
 14.4196223005847628 17.3390221038989054 11.9839926542829147   T   T   T
 16.0756709898187218  7.4050621890167188  5.2973801505213629   F   F   F
 14.3934069934584681 12.4579360757356898 11.9854120193363070   T   T   T
 16.0756709898187218  2.5261984263753923  5.2973801505213629   F   F   F
  4.0830782392452933  0.8506554447103878  0.3887956446629249   F   F   F
  6.0717449197462505 10.7819160601024979  7.0743723118395074   F   F   F
  4.0830782392452933  9.0806051706817232  0.3887956446629249   F   F   F
  6.0773452687151508 18.9779064212669262  7.0955109281077222   T   T   T
 16.2324418185259773 19.0298148282536772 12.9899626044780980   T   T   T
 14.2379013982368381  9.0806051706817232  6.2967810225136578   F   F   F
 16.2265680787377953 10.7819160601024979 12.9823576896902395   F   F   F
 14.2379013982368381  0.8506554447103878  6.2967810225136578   F   F   F
  6.0297217424147993 19.8199434320233259  1.9659273269971054   F   F   F
  4.1251014165767446  9.8886828166312153  8.6515039941735932   F   F   F
  6.0297217424147993  9.9738384141530059  1.9659273269971054   F   F   F
  4.1251014165767446  0.0425777987608954  8.6515039941735932   F   F   F
 14.2799245755682875  0.0425777987608954 11.4052260073561555   F   F   F
 16.1845449014063441  9.9738384141530059  4.7196493401794779   F   F   F
 14.2799245755682875  9.8886828166312153 11.4052260073561555   F   F   F
 16.1845449014063441 19.8199434320233259  4.7196493401794779   F   F   F
  2.2136347901559494  2.5175005587295871  1.2818583479620820   F   F   F
  7.9216164648383902 12.4603955265684565  7.9892039773839985   T   T   T
  2.2136347901559494  7.4137600566625226  1.2818583479620820   F   F   F
  7.9709060021672560 17.3270893904197578  7.9567511459764022   T   T   T
 18.0855795142088134 17.3469878216926361 12.0865330155504758   T   T   T
 12.3684579491474924  7.4137600566625226  5.4037183192145006   F   F   F
 18.1000956340593007 12.4478587232909721 12.0880947537308838   T   T   T
 12.3684579491474924  2.5175005587295871  5.4037183192145006   F   F   F
  1.6881962070130982  0.9207382679108781 12.6129474627524694   F   F   F
  8.4666269519784461 10.8519988833029899  5.9273707955758868   F   F   F
  1.6881962070130982  9.0105223474812313 12.6129474627524694   F   F   F
  8.4667581141536719 18.9915027518156982  5.9271797208790167   T   T   T
 18.6277556368786890 18.9348773853276811  0.7599954353629156   T   T   T
 11.8430193660046434  9.0105223474812313  7.4437825387772794   F   F   F
 18.6214501109699881 10.8519988833029899  0.7582058716006961   F   F   F
 11.8430193660046434  0.9207382679108781  7.4437825387772794   F   F   F
  2.6191221466297452  1.5772552032846385 10.2029786362431807   F   F   F
  7.5357010123617982 11.5085158186767487  3.5174019690665985   F   F   F
  2.6191221466297452  8.3540054121074725 10.2029786362431807   F   F   F
  7.5420747109744228 18.2871201191489163  3.5183371608197973   T   T   T
 17.6959060591098982 18.2837109487677658  3.1744123530360602   T   T   T
 12.7739453056212895  8.3540054121074725  9.8537513652865663   F   F   F
 17.6905241713533421 11.5085158186767487  3.1681746981099845   F   F   F
 12.7739453056212895  1.5772552032846385  9.8537513652865663   F   F   F
  1.5009805678170309 19.0730337407104322 10.5773682010573253   T   T   T
  8.6605141216446260  9.1427877065086367  3.8893856967007774   F   F   F
  1.4943090373469170 10.7197335242755862 10.5749623638772636   F   F   F
  8.6605141216446260  0.7884729088834742  3.8893856967007774   F   F   F
 18.8153372806361716  0.7884729088834742  2.7961909704758057   F   F   F
 11.6491321963384618 10.7197335242755862  9.4817676376524833   F   F   F
 18.8153372806361716  9.1427877065086367  2.7961909704758057   F   F   F
 11.6248126274187626 19.0722892420389769  9.4876500851487187   T   T   T
  4.3968316384186590  2.7045309019182375  8.6446672192582152   F   F   F
  5.7467120061735164 12.6369638713903196  1.9634961096485235   T   T   T
  4.3968316384186590  7.2267297134738726  8.6446672192582152   F   F   F
  5.7615739509713046 17.1581130864435352  1.9668088159357175   T   T   T
 15.9091884702629311 17.1564074534554472  4.7205954816428610   T   T   T
 14.5516547974102028  7.2267297134738726 11.4120627822715335   F   F   F
 15.9164456095157583 12.6360629045337909  4.7266208770743861   T   T   T
 14.5516547974102028  2.7045309019182375 11.4120627822715335   F   F   F
 10.1121256684423120 16.8898219855716683  9.5574921827109716   T   T   T
  0.0850379718339152  7.0141658028945288  2.8615498313442469   F   F   F
 10.1003431580110661 12.8872810821051242  9.5383854033621027   T   T   T
  0.0850379718339152  2.9170948124975822  2.8615498313442469   F   F   F
 10.2398611308254601  2.9170948124975822  3.8240268358323357   F   F   F
 20.2348558064393025 12.8599521876543204 10.5177705749197976   T   T   T
 10.2398611308254601  7.0141658028945288  3.8240268358323357   F   F   F
 20.2333116877823329 16.9428536708611475 10.5340756943842830   T   T   T
  7.6953642429893119 16.5587172367984330 10.5293796115719314   T   T   T
  2.4846705705810739  6.6155995192168131  3.8215753922960478   F   F   F
  7.7034919302271998 13.2438568808319985 10.5451906532424946   T   T   T
  2.4846705705810739  3.3156610961752970  3.8215753922960478   F   F   F
 12.6394937295726173  3.3156610961752970  2.8640012748805352   F   F   F
 17.8384643427825083 13.2394325031287163  9.5444597708178680   T   T   T
 12.6394937295726173  6.6155995192168131  2.8640012748805352   F   F   F
 17.8509930161267860 16.5603963879547607  9.5361677277454522   T   T   T
  8.5436909102986327 14.8983146573718592  8.6229329124059024   T   T   T
  1.5419329197154532  4.9656303076960553  1.9688022888379906   F   F   F
 11.6967560787069971  4.9656303076960553  4.7167743783385925   F   F   F
 18.7573763233714068 14.8988999961182476 11.4009928198415231   T   T   T
  6.4453433190146150 17.1780797584612017 12.7792929067096512   T   T   T
  3.7059346158871325  7.2425982351504699  6.0879969914885113   F   F   F
  6.4447173830985696 12.6126130820722970 12.7817695008556349   T   T   T
  3.7059346158871325  2.6886623802416403  6.0879969914885113   F   F   F
 13.8607577748786781  2.6886623802416403  0.5975796756880712   F   F   F
 16.6032806946633684 12.6184569460802738  7.2823246810121303   T   T   T
 13.8607577748786781  7.2425982351504699  0.5975796756880712   F   F   F
 16.6042977252976911 17.1802516312000684  7.2744930520053952   T   T   T
  5.0528491743747983 16.7980392100977518 10.5568273251992792   T   T   T
  5.1270102565117828  6.8928686523636049  3.8857134349154596   F   F   F
  5.0607902192833771 12.9968712316052279 10.5540478769292090   T   T   T
  5.1270102565117828  3.0383919630285057  3.8857134349154596   F   F   F
 15.2818334155033284  3.0383919630285057  2.7998632322611234   F   F   F
 15.1953561132203312 12.9784784759629073  9.4913931649731058   T   T   T
 15.2818334155033284  6.8928686523636049  2.7998632322611234   F   F   F
 15.2091283981025143 16.8035253759487340  9.4871086190547302   T   T   T
  6.0109688129629832 14.8968667261063192  0.6681847550644358   T   T   T
  4.1584246617385503  4.9656303076960553  7.3574447498228954   F   F   F
 14.3132478207300924  4.9656303076960553 12.6992852517067583   F   F   F
 16.1731784058645829 14.8983666175372313  6.0121692781989076   T   T   T
  3.9850474739313797 16.5292399086700392  0.0951677727421292   T   T   T
  6.1734543920290044  6.6085914233823377  6.7692293982920377   F   F   F
  3.9833875191605910 13.2687180261077238  0.0827433944557349   T   T   T
  6.1734543920290044  3.3226691920097720  6.7692293982920377   F   F   F
 16.3282775510205482  3.3226691920097720 13.2875006032377101   F   F   F
 14.1409197310349075 13.2786412874550628  6.6007441956139772   T   T   T
 16.3282775510205482  6.6085914233823377 13.2875006032377101   F   F   F
 14.1375074271903731 16.5195104083745363  6.5969279667388490   T   T   T
  1.8863603575601227 14.8985294183412176  0.2690303289979716   T   T   T
  8.2628481081252829  4.9656303076960553  6.9524502333987286   F   F   F
 18.4176712671168268  4.9656303076960553 13.1042797681310184   F   F   F
 12.0414437779118320 14.8980797845467414  6.4301807430205180   T   T   T
  1.6522650618380281 17.2875512497131858 12.5123082856131855   T   T   T
  8.5131568979229311  7.3415004446393679  5.8058209428476975   F   F   F
  1.6488263117456439 12.5155037895190659 12.4997836519181966   T   T   T
  8.5131568979229311  2.5897601707527422  5.8058209428476975   F   F   F
 18.6679800569143310  2.5897601707527422  0.8797557243288845   F   F   F
 11.8257377996993878 12.5081601104261768  7.5611081020245434   T   T   T
 18.6679800569143310  7.3415004446393679  0.8797557243288845   F   F   F
 11.8266488226136346 17.2873463857248915  7.5661362007994724   T   T   T
  2.4755364185219926 16.6775858827691117 10.0257043699861352   T   T   T
  7.6891086568283837  6.7513042184734262  3.3094339217652693   F   F   F
  2.4826950136604733 13.1047943870749481 10.0113063501847108   T   T   T
  7.6891086568283837  3.1799563969186848  3.3094339217652693   F   F   F
 17.8439318158197828  3.1799563969186848  3.3761427454113133   F   F   F
 12.6330058666379159 13.1118905560086176 10.0648797316645400   T   T   T
 17.8439318158197828  6.7513042184734262  3.3761427454113133   F   F   F
 12.6486654336359194 16.6954572160705759 10.0686156756022651   T   T   T
  4.1174529754771960 14.8968639115206152  8.9611938327796938   T   T   T
  6.0281749005281000  4.9656303076960553  2.2907179157230457   F   F   F
 16.1829980595196439  4.9656303076960553  4.3948587514535369   F   F   F
 14.2884394998006581 14.8973502401115230 11.0943620053327638   T   T   T
  8.6114921007489755  1.4146856099378582  9.1990931219956522   F   F   F
  1.5433310582425686 11.3459462253299677  2.5135164548190696   F   F   F
  8.6114921007489755  8.5165750054542517  9.1990931219956522   F   F   F
  1.5448664516889079 18.4488251078624046  2.5207005150611121   T   T   T
 11.7059872323842438 18.4504168431576154  4.1631696747999269   T   T   T
 18.7663152597405194  8.5165750054542517 10.8576368795340965   F   F   F
 11.6981542172341122 11.3459462253299677  4.1720602123575130   F   F   F
 18.7663152597405194  1.4146856099378582 10.8576368795340965   F   F   F
  6.5543253377466240  0.6425666935286518 11.2753241723876716   F   F   F
  3.6004978212449203 10.5738273089207624  4.5897475052110890   F   F   F
  6.5543253377466240  9.2886939218634588 11.2753241723876716   F   F   F
  3.6068102842485623 19.2218137773541251  4.5898403297525334   T   T   T
 13.7627298600848693 19.2216733594677116  2.0931462880845229   T   T   T
 16.7091484967381696  9.2886939218634588  8.7814058291420753   F   F   F
 13.7553209802364638 10.5738273089207624  2.0958291619654932   F   F   F
 16.7091484967381696  0.6425666935286518  8.7814058291420753   F   F   F
  5.6448362218964876  1.0320241432667694  0.8173882092636284   F   F   F
  4.5099869370950563 10.9632847586588795  7.5029648764402106   F   F   F
  5.6448362218964876  8.8992364721253416  0.8173882092636284   F   F   F
  4.5083822234722382 18.8262353697213527  7.5081201769857477   T   T   T
 14.6745544545201465 18.8366612269578013 12.5557884227015855   T   T   T
 15.7996593808880306  8.8992364721253416  5.8681884579129546   F   F   F
 14.6648100960866010 10.9632847586588795 12.5537651250895372   F   F   F
 15.7996593808880306  1.0320241432667694  5.8681884579129546   F   F   F
  2.4881439176978279  1.0483023193839807  0.6417355337127613   F   F   F
  7.6666792412937159 10.9795629347759487  7.3273122008893434   F   F   F
  2.4881439176978279  8.8829582960081304  0.6417355337127613   F   F   F
  7.6779469753794469 18.8201359829604584  7.3148272518435462   T   T   T
 17.8229320887732356 18.8163264531843843 12.7327781832286107   T   T   T
 12.6429670766893718  8.8829582960081304  6.0438411334638209   F   F   F
 17.8215024002852616 10.9795629347759487 12.7294178006404035   F   F   F
 12.6429670766893718  1.0483023193839807  6.0438411334638209   F   F   F
  1.4669611892426841  0.7765305914257938 11.0116839679886329   F   F   F
  8.6878619697488606 10.7077912068179053  4.3261073008120503   F   F   F
  1.4669611892426841  9.1547300239663159 11.0116839679886329   F   F   F
  8.7015076786468999 19.0805649310115619  4.3223853187508352   T   T   T
 18.8437871787582623 19.0846135143728297  2.3624480440876443   T   T   T
 11.6217843482342271  9.1547300239663159  9.0450460335411140   F   F   F
 18.8426851287404027 10.7077912068179053  2.3594693663645319   F   F   F
 11.6217843482342271  0.7765305914257938  9.0450460335411140   F   F   F
  4.0843573639185831  1.3979692287630687  9.5406986308418436   F   F   F
  6.0704657950729608 11.3292298441551793  2.8551219636652609   F   F   F
  4.0843573639185831  8.5332913866290419  9.5406986308418436   F   F   F
  6.0808588055444792 18.4669328028145152  2.8604625258061067   T   T   T
 16.2270754299231577 18.4641772023263186  3.8301323318138252   T   T   T
 14.2391805229101269  8.5332913866290419 10.5160313706879034   F   F   F
 16.2252889540645029 11.3292298441551793  3.8304547035113221   F   F   F
 14.2391805229101269  1.3979692287630687 10.5160313706879034   F   F   F
  8.6029723064571453 16.4744426991021307  9.1963127739177555   T   T   T
  1.5763273773718030  6.5092533948319806  2.4761345411157811   F   F   F
  8.5915098767778275 13.3208708751851717  9.1960043069777679   T   T   T
  1.5763273773718030  3.4220072205601295  2.4761345411157811   F   F   F
 11.7311505363633461  3.4220072205601295  4.2094421260608010   F   F   F
 18.7363027741043204 13.3545146250567335 10.8957043129663340   T   T   T
 11.7311505363633461  6.5092533948319806  4.2094421260608010   F   F   F
 18.7340432412197089 16.4438148660366537 10.8976441215344657   T   T   T
  6.4353602693880028 17.3724413588187865 11.1721225036532363   T   T   T
  3.7180465794847750  7.4382500466046224  4.4764479790710539   F   F   F
  6.4414500220756290 12.4216380491716620 11.1742066784106928   T   T   T
  3.7180465794847750  2.4930105687874886  4.4764479790710539   F   F   F
 13.8728697384763198  2.4930105687874886  2.2091286881055288   F   F   F
 16.5974114472049656 12.4241841591311832  8.8925448619050034   T   T   T
 13.8728697384763198  7.4382500466046224  2.2091286881055288   F   F   F
 16.6053308940555198 17.3697957259051847  8.8853428704977713   T   T   T
  5.5422557365388574 16.4389685801331140  0.5444352345419561   T   T   T
  4.6170079927443011  6.5095434530137322  7.2176998349999728   F   F   F
  5.5384255463382885 13.3562669549188087  0.5401868204496312   T   T   T
  4.6170079927443011  3.4217171623783784  7.2176998349999728   F   F   F
 14.7718311517358440  3.4217171623783784 12.8390301665297759   F   F   F
 15.6964497762081905 13.3586758098346632  6.1511881527450063   T   T   T
 14.7718311517358440  6.5095434530137322 12.8390301665297759   F   F   F
 15.6931148810348322 16.4370651681132429  6.1477543829136270   T   T   T
  2.3808127127353154 16.4446728580108967  0.3210162083332869   T   T   T
  7.7766577971384301  6.5146392987053847  6.9908051240805120   F   F   F
  2.3798090474855194 13.3515047207535904  0.3113843061952386   T   T   T
  7.7766577971384301  3.4166213166867263  6.9908051240805120   F   F   F
 17.9314809561299739  3.4166213166867263 13.0659248774492358   F   F   F
 12.5336552543314461 13.3527573223531135  6.3654184961912303   T   T   T
 17.9314809561299739  6.5146392987053847 13.0659248774492358   F   F   F
 12.5286395198321561 16.4446984099300231  6.3649485132707389   T   T   T
  1.3936810014342187 17.4931063440468435 10.9190784506209777   T   T   T
  8.7665009375840501  7.5582981210348308  4.2126116944586931   F   F   F
  1.3927642810750513 12.3029064731207587 10.9068294705277502   T   T   T
  8.7665009375840501  2.3729624943572789  4.2126116944586931   F   F   F
 18.9213240965755958  2.3729624943572789  2.4729649727178891   F   F   F
 11.5725709097540843 12.3037658776014069  9.1475443780038770   T   T   T
 18.9213240965755958  7.5582981210348308  2.4729649727178891   F   F   F
 11.5760963870360207 17.4884075744969856  9.1539464619100066   T   T   T
  3.9564921103494473 16.4442143422879248  9.4096084197990475   T   T   T
  6.1940601493177123  6.5178291587723436  2.7207962266042216   F   F   F
  3.9661957060008222 13.3470261512122619  9.4039875594151354   T   T   T
  6.1940601493177123  3.4134314566197661  2.7207962266042216   F   F   F
 16.3488833083092580  3.4134314566197661  3.9647804405723610   F   F   F
 14.1280729647224774 13.3483481587523674 10.6550720740928320   T   T   T
 16.3488833083092580  6.5178291587723436  3.9647804405723610   F   F   F
 14.1429251470286612 16.4481995075004441 10.6558935022628951   T   T   T
  8.6218394895586741 14.9828713703363583  6.4029460315288658   T   T   T
  9.3393221274101634 16.3115077823720220  5.5116494527595128   T   T   T
  9.2279461289649216 13.6033775918651525  5.5055084503684002   T   T   T
