 O Si Fe  H 
 1.0000000000000000
    20.3096463179830877    0.0000000000000000    0.0000000000000000
     0.0000000000000000   19.8625212307842212    0.0000000000000000
     0.0000000000000000    0.0000000000000000   13.3711533343531652
 192  96   1   2
Selective dynamics
Cartesian
 10.2074441472539608  1.4455920571236711  9.4604249957828941   F   F   F
 20.2570253297206690 11.3768526725157813  2.7748483286063115   F   F   F
 10.2074441472539608  8.4856685582684399  9.4604249957828941   F   F   F
 20.2597775817248973 18.4189559525265203  2.7810333417097839   T   T   T
 10.1107116582843393 18.4262417427803413  3.8991237830865577   T   T   T
  0.0526209882624183  8.4856685582684399 10.5963050057468546   F   F   F
 10.1022021707291270 11.3768526725157813  3.9107283385702711   F   F   F
  0.0526209882624183  1.4455920571236711 10.5963050057468546   F   F   F
  7.8574470561008258  1.3782397496433998 10.6412964171056164   F   F   F
  2.2973761028907185 11.3095003650355110  3.9557197499290346   F   F   F
  7.8574470561008258  8.5530208657487101 10.6412964171056164   F   F   F
  2.2985810501654909 18.4900729281961596  3.9658237937947818   T   T   T
 12.4616472996556240 18.4798052076742927  2.7337290723359016   T   T   T
 18.0122702150923679  8.5530208657487101  9.4154335844241306   F   F   F
 12.4521992618822619 11.3095003650355110  2.7298569172475480   F   F   F
 18.0122702150923679  1.3782397496433998  9.4154335844241306   F   F   F
  8.1725947172854614  2.7725725698066146  8.4232488031646700   F   F   F
  1.9858525411233519 12.7071242964931841  1.7444014375684675   T   T   T
  8.1725947172854614  7.1586880455854951  8.4232488031646700   F   F   F
  1.9887489944418388 17.0843611745836590  1.7583339122042494   T   T   T
 12.1399179790319813 17.0896810819674165  4.9525475427700778   T   T   T
 18.3274178762770035  7.1586880455854951 11.6334811983650788   F   F   F
 12.1506893025137579 12.7038340981571363  4.9383918485301397   T   T   T
 18.3274178762770035  2.7725725698066146 11.6334811983650788   F   F   F
  8.2153166660147221  0.1029381220613197  8.3269034275119509   F   F   F
  1.9395064929768218 10.0341987374534298  1.6413267603352724   F   F   F
  8.2153166660147221  9.8283224933307913  8.3269034275119509   F   F   F
  1.9432903687410898 19.7556648583745300  1.6409786758532030   T   T   T
 12.0977913811542059 19.7567780173469210  5.0472420058912384   T   T   T
 18.3701398250062660  9.8283224933307913 11.7298265740177978   F   F   F
 12.0943296519683656 10.0341987374534298  5.0442499068413102   F   F   F
 18.3701398250062660  0.1029381220613197 11.7298265740177978   F   F   F
  6.5887154352565247  0.7852118051446575 12.8897032740910973   F   F   F
  3.5661077237350187 10.7164724205367676  6.2041266069144205   F   F   F
  6.5887154352565247  9.1460488102474535 12.8897032740910973   F   F   F
  3.5857527015232167 19.0848564040198916  6.2059029886572450   T   T   T
 13.7218938386477234 19.0774060588095153  0.4811785502392597   T   T   T
 16.7435385942480686  9.1460488102474535  7.1670267274386505   F   F   F
 13.7209308827265630 10.7164724205367676  0.4814500602620672   F   F   F
 16.7435385942480686  0.7852118051446575  7.1670267274386505   F   F   F
  6.5828393450314806 18.9465012753985675 10.8080418781646124   T   T   T
  3.5614151128380791  9.0137536510646292  4.1293696433153393   F   F   F
  6.5934080461534652 10.8487675797195919 10.8149463104919210   F   F   F
  3.5614151128380791  0.9175069643274809  4.1293696433153393   F   F   F
 13.7162382718296225  0.9175069643274809  2.5562070238612433   F   F   F
 16.7482312051450108 10.8487675797195919  9.2417836910378259   F   F   F
 13.7162382718296225  9.0137536510646292  2.5562070238612433   F   F   F
 16.7442320566717804 18.9456126973073076  9.2433317870646921   T   T   T
  5.1875978346380416  1.3228882597357992 10.7264487216491453   F   F   F
  4.9672253243535023 11.2541488751279086  4.0408720544725618   F   F   F
  5.1875978346380416  8.6083723556563125 10.7264487216491453   F   F   F
  4.9731474641927198 18.5423470749617572  4.0431951280403107   T   T   T
 15.1299244922270724 18.5431399848851513  2.6398774094650950   T   T   T
 15.3424209936295863  8.6083723556563125  9.3302812798806034   F   F   F
 15.1220484833450453 11.2541488751279086  2.6447046127040204   F   F   F
 15.3424209936295863  1.3228882597357992  9.3302812798806034   F   F   F
  5.9208478308271770  2.5261984263753923  1.3881965166552193   F   F   F
  4.2312766030310991 12.4554526402434824  8.0746547884216202   T   T   T
  5.9208478308271770  7.4050621890167188  1.3881965166552193   F   F   F
  4.2073561209069128 17.3351873964572540  8.0825489081534343   T   T   T
 14.4285505413704058 17.3392484108524840 11.9897752047222319   T   T   T
 16.0756709898187218  7.4050621890167188  5.2973801505213629   F   F   F
 14.3898582766152927 12.4560662880713817 11.9835477564844215   T   T   T
 16.0756709898187218  2.5261984263753923  5.2973801505213629   F   F   F
  4.0830782392452933  0.8506554447103878  0.3887956446629249   F   F   F
  6.0717449197462505 10.7819160601024979  7.0743723118395074   F   F   F
  4.0830782392452933  9.0806051706817232  0.3887956446629249   F   F   F
  6.0848145682119883 18.9584684743488268  7.1108616532299074   T   T   T
 16.2315354219954919 19.0389843150670686 12.9962636776358718   T   T   T
 14.2379013982368381  9.0806051706817232  6.2967810225136578   F   F   F
 16.2265680787377953 10.7819160601024979 12.9823576896902395   F   F   F
 14.2379013982368381  0.8506554447103878  6.2967810225136578   F   F   F
  6.0297217424147993 19.8199434320233259  1.9659273269971054   F   F   F
  4.1251014165767446  9.8886828166312153  8.6515039941735932   F   F   F
  6.0297217424147993  9.9738384141530059  1.9659273269971054   F   F   F
  4.1251014165767446  0.0425777987608954  8.6515039941735932   F   F   F
 14.2799245755682875  0.0425777987608954 11.4052260073561555   F   F   F
 16.1845449014063441  9.9738384141530059  4.7196493401794779   F   F   F
 14.2799245755682875  9.8886828166312153 11.4052260073561555   F   F   F
 16.1845449014063441 19.8199434320233259  4.7196493401794779   F   F   F
  2.2136347901559494  2.5175005587295871  1.2818583479620820   F   F   F
  7.9252023540093814 12.4361462355081791  8.0005125319080648   T   T   T
  2.2136347901559494  7.4137600566625226  1.2818583479620820   F   F   F
  8.0324939785669862 17.3135165467445660  7.9165340017446839   T   T   T
 18.0754994495987305 17.3478412387884156 12.0875165541411178   T   T   T
 12.3684579491474924  7.4137600566625226  5.4037183192145006   F   F   F
 18.0973932152000501 12.4480228428485553 12.0883953936074491   T   T   T
 12.3684579491474924  2.5175005587295871  5.4037183192145006   F   F   F
  1.6881962070130982  0.9207382679108781 12.6129474627524694   F   F   F
  8.4666269519784461 10.8519988833029899  5.9273707955758868   F   F   F
  1.6881962070130982  9.0105223474812313 12.6129474627524694   F   F   F
  8.4782330714472725 19.0058352143045646  5.9237095443016754   T   T   T
 18.6298370074845252 18.9348052538133089  0.7595517092416210   T   T   T
 11.8430193660046434  9.0105223474812313  7.4437825387772794   F   F   F
 18.6214501109699881 10.8519988833029899  0.7582058716006961   F   F   F
 11.8430193660046434  0.9207382679108781  7.4437825387772794   F   F   F
  2.6191221466297452  1.5772552032846385 10.2029786362431807   F   F   F
  7.5357010123617982 11.5085158186767487  3.5174019690665985   F   F   F
  2.6191221466297452  8.3540054121074725 10.2029786362431807   F   F   F
  7.5413771726481524 18.2965613149607407  3.5056775822125612   T   T   T
 17.6942161095927801 18.2846243827207111  3.1713878607081054   T   T   T
 12.7739453056212895  8.3540054121074725  9.8537513652865663   F   F   F
 17.6905241713533421 11.5085158186767487  3.1681746981099845   F   F   F
 12.7739453056212895  1.5772552032846385  9.8537513652865663   F   F   F
  1.5012437355881827 19.0734384180902410 10.5776050323851845   T   T   T
  8.6605141216446260  9.1427877065086367  3.8893856967007774   F   F   F
  1.4943090373469170 10.7197335242755862 10.5749623638772636   F   F   F
  8.6605141216446260  0.7884729088834742  3.8893856967007774   F   F   F
 18.8153372806361716  0.7884729088834742  2.7961909704758057   F   F   F
 11.6491321963384618 10.7197335242755862  9.4817676376524833   F   F   F
 18.8153372806361716  9.1427877065086367  2.7961909704758057   F   F   F
 11.6422932435246196 19.0748703303031277  9.4864973768321352   T   T   T
  4.3968316384186590  2.7045309019182375  8.6446672192582152   F   F   F
  5.7509744817490365 12.6326454180331922  1.9570379988686470   T   T   T
  4.3968316384186590  7.2267297134738726  8.6446672192582152   F   F   F
  5.7568844014996161 17.1575230817147393  1.9638876221536912   T   T   T
 15.9145093811805793 17.1563626397773312  4.7235751950629252   T   T   T
 14.5516547974102028  7.2267297134738726 11.4120627822715335   F   F   F
 15.9220594654068037 12.6385833638383787  4.7249689006669486   T   T   T
 14.5516547974102028  2.7045309019182375 11.4120627822715335   F   F   F
 10.1159529568471651 16.9212828024913513  9.5990088788907713   T   T   T
  0.0850379718339152  7.0141658028945288  2.8615498313442469   F   F   F
 10.0990894363839985 12.8899115667708699  9.5266965406433641   T   T   T
  0.0850379718339152  2.9170948124975822  2.8615498313442469   F   F   F
 10.2398611308254601  2.9170948124975822  3.8240268358323357   F   F   F
 20.2374245609143770 12.8614988921691715 10.5243575505836517   T   T   T
 10.2398611308254601  7.0141658028945288  3.8240268358323357   F   F   F
 20.2316164068599313 16.9456459244305719 10.5453981060347388   T   T   T
  7.6857571035909586 16.5847107925187771 10.5135141872353426   T   T   T
  2.4846705705810739  6.6155995192168131  3.8215753922960478   F   F   F
  7.7048581369694604 13.2491705424446806 10.5291121245220971   T   T   T
  2.4846705705810739  3.3156610961752970  3.8215753922960478   F   F   F
 12.6394937295726173  3.3156610961752970  2.8640012748805352   F   F   F
 17.8460321965688813 13.2383567980549639  9.5438676460468077   T   T   T
 12.6394937295726173  6.6155995192168131  2.8640012748805352   F   F   F
 17.8583703044616975 16.5619982709243523  9.5368650718813246   T   T   T
  8.5742979619114923 14.9109214514221939  8.6459520906469098   T   T   T
  1.5419329197154532  4.9656303076960553  1.9688022888379906   F   F   F
 11.6967560787069971  4.9656303076960553  4.7167743783385925   F   F   F
 18.7540272208460976 14.8989794053037325 11.4054767746667647   T   T   T
  6.4438508605722919 17.1789372949338919 12.7779920717957278   T   T   T
  3.7059346158871325  7.2425982351504699  6.0879969914885113   F   F   F
  6.4494874583380497 12.6167061378275651 12.7735633126423416   T   T   T
  3.7059346158871325  2.6886623802416403  6.0879969914885113   F   F   F
 13.8607577748786781  2.6886623802416403  0.5975796756880712   F   F   F
 16.6132381966549545 12.6203195800950727  7.2823328805135299   T   T   T
 13.8607577748786781  7.2425982351504699  0.5975796756880712   F   F   F
 16.6115659594904734 17.1791844249810985  7.2785791562788127   T   T   T
  5.0433754291582309 16.8014165171010639 10.5602384512168168   T   T   T
  5.1270102565117828  6.8928686523636049  3.8857134349154596   F   F   F
  5.0618314082551539 12.9950703194117896 10.5533299412901265   T   T   T
  5.1270102565117828  3.0383919630285057  3.8857134349154596   F   F   F
 15.2818334155033284  3.0383919630285057  2.7998632322611234   F   F   F
 15.2037594121736070 12.9834844391868849  9.4923325884428991   T   T   T
 15.2818334155033284  6.8928686523636049  2.7998632322611234   F   F   F
 15.2177581664085437 16.7969904653790323  9.4930528629679198   T   T   T
  6.0120947852890501 14.8954790622017264  0.6642598984632855   T   T   T
  4.1584246617385503  4.9656303076960553  7.3574447498228954   F   F   F
 14.3132478207300924  4.9656303076960553 12.6992852517067583   F   F   F
 16.1542699357293600 14.8987633452561017  6.0189000088811371   T   T   T
  3.9844227310110001 16.5273890157499608  0.0940264264728088   T   T   T
  6.1734543920290044  6.6085914233823377  6.7692293982920377   F   F   F
  3.9839366301726340 13.2684681189316560  0.0834302088204033   T   T   T
  6.1734543920290044  3.3226691920097720  6.7692293982920377   F   F   F
 16.3282775510205482  3.3226691920097720 13.2875006032377101   F   F   F
 14.1445915607492285 13.2449001816294096  6.5997703112981450   T   T   T
 16.3282775510205482  6.6085914233823377 13.2875006032377101   F   F   F
 14.1400065109714053 16.5496076018166605  6.6032961169800917   T   T   T
  1.8851941975344977 14.8988086897162901  0.2690545435022237   T   T   T
  8.2628481081252829  4.9656303076960553  6.9524502333987286   F   F   F
 18.4176712671168268  4.9656303076960553 13.1042797681310184   F   F   F
 12.0679676474149868 14.8917755610565532  6.4353812704997502   T   T   T
  1.6535434848063479 17.2928980459344608 12.5175546048420099   T   T   T
  8.5131568979229311  7.3415004446393679  5.8058209428476975   F   F   F
  1.6490067002026434 12.5124831128944223 12.5039160939127765   T   T   T
  8.5131568979229311  2.5897601707527422  5.8058209428476975   F   F   F
 18.6679800569143310  2.5897601707527422  0.8797557243288845   F   F   F
 11.8150860062474301 12.5006687048768033  7.5535943392540608   T   T   T
 18.6679800569143310  7.3415004446393679  0.8797557243288845   F   F   F
 11.8089789472880042 17.2695587479509953  7.5771027434243141   T   T   T
  2.4696657655754377 16.6752494646109994 10.0283286868661730   T   T   T
  7.6891086568283837  6.7513042184734262  3.3094339217652693   F   F   F
  2.4843756448662586 13.1052495037072099 10.0161901793751884   T   T   T
  7.6891086568283837  3.1799563969186848  3.3094339217652693   F   F   F
 17.8439318158197828  3.1799563969186848  3.3761427454113133   F   F   F
 12.6392131934575946 13.1115571253912471 10.0505799863258218   T   T   T
 17.8439318158197828  6.7513042184734262  3.3761427454113133   F   F   F
 12.6597110648861335 16.6973374319550132 10.0737941438772083   T   T   T
  4.1124404428742718 14.8957606985623521  8.9641365132518978   T   T   T
  6.0281749005281000  4.9656303076960553  2.2907179157230457   F   F   F
 16.1829980595196439  4.9656303076960553  4.3948587514535369   F   F   F
 14.2898580417196985 14.8941587545595997 11.1004065490398158   T   T   T
  8.6114921007489755  1.4146856099378582  9.1990931219956522   F   F   F
  1.5433310582425686 11.3459462253299677  2.5135164548190696   F   F   F
  8.6114921007489755  8.5165750054542517  9.1990931219956522   F   F   F
  1.5460991378709581 18.4490807379958852  2.5226692597539522   T   T   T
 11.7011032630314862 18.4440046884356192  4.1733208918450657   T   T   T
 18.7663152597405194  8.5165750054542517 10.8576368795340965   F   F   F
 11.6981542172341122 11.3459462253299677  4.1720602123575130   F   F   F
 18.7663152597405194  1.4146856099378582 10.8576368795340965   F   F   F
  6.5543253377466240  0.6425666935286518 11.2753241723876716   F   F   F
  3.6004978212449203 10.5738273089207624  4.5897475052110890   F   F   F
  6.5543253377466240  9.2886939218634588 11.2753241723876716   F   F   F
  3.6083636817468547 19.2220001485706860  4.5903388592918875   T   T   T
 13.7586961176233640 19.2199178544604479  2.0969897018066455   T   T   T
 16.7091484967381696  9.2886939218634588  8.7814058291420753   F   F   F
 13.7553209802364638 10.5738273089207624  2.0958291619654932   F   F   F
 16.7091484967381696  0.6425666935286518  8.7814058291420753   F   F   F
  5.6448362218964876  1.0320241432667694  0.8173882092636284   F   F   F
  4.5099869370950563 10.9632847586588795  7.5029648764402106   F   F   F
  5.6448362218964876  8.8992364721253416  0.8173882092636284   F   F   F
  4.5091859073691749 18.8219590035369997  7.5121639646168337   T   T   T
 14.6750312685840463 18.8396916486929342 12.5590208691289611   T   T   T
 15.7996593808880306  8.8992364721253416  5.8681884579129546   F   F   F
 14.6648100960866010 10.9632847586588795 12.5537651250895372   F   F   F
 15.7996593808880306  1.0320241432667694  5.8681884579129546   F   F   F
  2.4881439176978279  1.0483023193839807  0.6417355337127613   F   F   F
  7.6666792412937159 10.9795629347759487  7.3273122008893434   F   F   F
  2.4881439176978279  8.8829582960081304  0.6417355337127613   F   F   F
  7.6863481029448630 18.8251539153534750  7.3064181083691837   T   T   T
 17.8214213337096119 18.8186277887472393 12.7345085561932692   T   T   T
 12.6429670766893718  8.8829582960081304  6.0438411334638209   F   F   F
 17.8215024002852616 10.9795629347759487 12.7294178006404035   F   F   F
 12.6429670766893718  1.0483023193839807  6.0438411334638209   F   F   F
  1.4669611892426841  0.7765305914257938 11.0116839679886329   F   F   F
  8.6878619697488606 10.7077912068179053  4.3261073008120503   F   F   F
  1.4669611892426841  9.1547300239663159 11.0116839679886329   F   F   F
  8.6954672840230369 19.0819400517250024  4.3145250052178481   T   T   T
 18.8450010509636314 19.0848281078916564  2.3619669399261900   T   T   T
 11.6217843482342271  9.1547300239663159  9.0450460335411140   F   F   F
 18.8426851287404027 10.7077912068179053  2.3594693663645319   F   F   F
 11.6217843482342271  0.7765305914257938  9.0450460335411140   F   F   F
  4.0843573639185831  1.3979692287630687  9.5406986308418436   F   F   F
  6.0704657950729608 11.3292298441551793  2.8551219636652609   F   F   F
  4.0843573639185831  8.5332913866290419  9.5406986308418436   F   F   F
  6.0757107937824646 18.4642042377955207  2.8570422619116269   T   T   T
 16.2273906657662224 18.4643399365776339  3.8303504965028181   T   T   T
 14.2391805229101269  8.5332913866290419 10.5160313706879034   F   F   F
 16.2252889540645029 11.3292298441551793  3.8304547035113221   F   F   F
 14.2391805229101269  1.3979692287630687 10.5160313706879034   F   F   F
  8.6252726816395722 16.4656070379908464  9.2096629266273560   T   T   T
  1.5763273773718030  6.5092533948319806  2.4761345411157811   F   F   F
  8.5893238392170446 13.3313130675878266  9.1690838172007290   T   T   T
  1.5763273773718030  3.4220072205601295  2.4761345411157811   F   F   F
 11.7311505363633461  3.4220072205601295  4.2094421260608010   F   F   F
 18.7388203163387459 13.3546020952833722 10.8986660313964112   T   T   T
 11.7311505363633461  6.5092533948319806  4.2094421260608010   F   F   F
 18.7333233300808146 16.4439753187983619 10.9032892849041918   T   T   T
  6.4255123116717119 17.3773690769477973 11.1720499343508255   T   T   T
  3.7180465794847750  7.4382500466046224  4.4764479790710539   F   F   F
  6.4505865752643468 12.4254805785497311 11.1637307316430618   T   T   T
  3.7180465794847750  2.4930105687874886  4.4764479790710539   F   F   F
 13.8728697384763198  2.4930105687874886  2.2091286881055288   F   F   F
 16.6042530274740621 12.4247662506183172  8.8931437118717671   T   T   T
 13.8728697384763198  7.4382500466046224  2.2091286881055288   F   F   F
 16.6108069563623175 17.3693870295245212  8.8901012858394637   T   T   T
  5.5417092791982041 16.4359933459329497  0.5429271941313286   T   T   T
  4.6170079927443011  6.5095434530137322  7.2176998349999728   F   F   F
  5.5419601519879871 13.3537369766710938  0.5339951936778976   T   T   T
  4.6170079927443011  3.4217171623783784  7.2176998349999728   F   F   F
 14.7718311517358440  3.4217171623783784 12.8390301665297759   F   F   F
 15.6996099417348010 13.3527152793026680  6.1530418974084240   T   T   T
 14.7718311517358440  6.5095434530137322 12.8390301665297759   F   F   F
 15.6953427828080994 16.4431896718481880  6.1531814041752266   T   T   T
  2.3812108070271556 16.4445584203568131  0.3233196285017059   T   T   T
  7.7766577971384301  6.5146392987053847  6.9908051240805120   F   F   F
  2.3806725513217102 13.3517397769785546  0.3127594462655621   T   T   T
  7.7766577971384301  3.4166213166867263  6.9908051240805120   F   F   F
 17.9314809561299739  3.4166213166867263 13.0659248774492358   F   F   F
 12.5403042261400657 13.3438725126755315  6.3707799360350723   T   T   T
 17.9314809561299739  6.5146392987053847 13.0659248774492358   F   F   F
 12.5346752568148485 16.4408062038262095  6.3800282555532188   T   T   T
  1.3941102682508859 17.4941728027344183 10.9239930634224365   T   T   T
  8.7665009375840501  7.5582981210348308  4.2126116944586931   F   F   F
  1.3962298083214659 12.3025048338036598 10.9102520590566012   T   T   T
  8.7665009375840501  2.3729624943572789  4.2126116944586931   F   F   F
 18.9213240965755958  2.3729624943572789  2.4729649727178891   F   F   F
 11.5657517273244412 12.3035636250329272  9.1449848263827338   T   T   T
 18.9213240965755958  7.5582981210348308  2.4729649727178891   F   F   F
 11.5813936913697599 17.4895562327803660  9.1677424427735374   T   T   T
  3.9505929894554703 16.4408525263726730  9.4111816409934868   T   T   T
  6.1940601493177123  6.5178291587723436  2.7207962266042216   F   F   F
  3.9681556932028572 13.3448521032239373  9.4047078157585879   T   T   T
  6.1940601493177123  3.4134314566197661  2.7207962266042216   F   F   F
 16.3488833083092580  3.4134314566197661  3.9647804405723610   F   F   F
 14.1296153223339491 13.3465680786968708 10.6526954373014018   T   T   T
 16.3488833083092580  6.5178291587723436  3.9647804405723610   F   F   F
 14.1519573666493628 16.4455399640146638 10.6638378560497813   T   T   T
  8.4432440929652852 15.5688723769613269  6.5916920018828771   T   T   T
  8.8396500966824423 14.3370258430572601  5.7953283455561291   T   T   T
  8.2869249099611242 16.1116072311344816  5.1839106716868111   T   T   T
