 O Si  W  H                             
   1.00000000000000     
    20.3096463179830877    0.0000000000000000    0.0000000000000000
     0.0000000000000000   19.8625212307842212    0.0000000000000000
     0.0000000000000000    0.0000000000000000   13.3711533343531652
   O    Si   W    H 
   192    96     1     2
Selective dynamics
Direct
  0.5025887620190588  0.0727797837547186  0.7075253542784736   F   F   F
  0.9974078170954428  0.5727822700759333  0.2075251050237270   F   F   F
  0.5025887620190588  0.4272201852627049  0.7075253542784736   F   F   F
  0.9973618893869080  0.9272016282943523  0.2075818109705496   T   T   T
  0.4973722605908201  0.9272575438165889  0.2923229157898752   T   T   T
  0.0025909363056442  0.4272201852627049  0.7924746456071219   F   F   F
  0.4974089573906113  0.5727822700759333  0.2924751442310196   F   F   F
  0.0025909363056442  0.0727797837547186  0.7924746456071219   F   F   F
  0.3868826604352336  0.0693889755477741  0.7958400994969068   F   F   F
  0.1131176764001935  0.5693889445651976  0.2958398502421602   F   F   F
  0.3868826604352336  0.4306109934696494  0.7958400994969068   F   F   F
  0.1130189925841667  0.9307725638546583  0.2960814518946813   T   T   T
  0.6130462778935776  0.9307679660740135  0.2039405030626522   T   T   T
  0.8868839820244006  0.4306109934696494  0.7041599003886887   F   F   F
  0.6131175208587578  0.5693889445651976  0.2041603990125864   F   F   F
  0.8868839820244006  0.0693889755477741  0.7041599003886887   F   F   F
  0.4023994249847505  0.1395880194556014  0.6299568772694428   F   F   F
  0.0976520406652057  0.6396723286753773  0.1302581687355067   T   T   T
  0.4023994249847505  0.3604119495618221  0.6299568772694428   F   F   F
  0.0976514157319212  0.8603721039752622  0.1304562254985748   T   T   T
  0.5974599783534210  0.8602440214489967  0.3694104826068296   T   T   T
  0.9023987770664448  0.3604119495618221  0.8700446183734343   F   F   F
  0.5976335313399916  0.6396925778709295  0.3697244191314976   T   T   T
  0.9023987770664448  0.1395880194556014  0.8700446183734343   F   F   F
  0.4045033513324086  0.0051825243534793  0.6227510665520910   F   F   F
  0.0954969855030257  0.5051825940630508  0.1227515651759887   F   F   F
  0.4045033513324086  0.4948173439717962  0.6227510665520910   F   F   F
  0.0954761477343068  0.9947809878852597  0.1227206455665182   T   T   T
  0.5955448467567503  0.9947022115193960  0.3773592380271636   T   T   T
  0.9045012262835073  0.4948173439717962  0.8772466896975715   F   F   F
  0.5954953528309943  0.5051825940630508  0.3772486840787579   F   F   F
  0.9045012262835073  0.0051825243534793  0.8772466896975715   F   F   F
  0.3244128379609492  0.0395323428922509  0.9639931334033705   F   F   F
  0.1755870064976151  0.5395337215997955  0.4639936320272682   F   F   F
  0.3244128379609492  0.4604677268173205  0.9639931334033705   F   F   F
  0.1756142641567485  0.9604915915482021  0.4640305201721621   T   T   T
  0.6756397588294264  0.9604763265273102  0.0359668471230920   T   T   T
  0.8244112052889179  0.4604677268173205  0.5360068664822251   F   F   F
  0.6755853738255837  0.5395337215997955  0.0360066172274784   F   F   F
  0.8244112052889179  0.0395323428922509  0.5360068664822251   F   F   F
  0.3244357325285293  0.9538058600557950  0.8086989882965034   T   T   T
  0.1753560817475446  0.4538069409854160  0.3088267628635180   F   F   F
  0.3246442550878825  0.5461945074317072  0.8088232727250499   F   F   F
  0.1753560817475446  0.0461928769937856  0.3088267628635180   F   F   F
  0.6753539566986504  0.0461928769937856  0.1911734863912287   F   F   F
  0.8246426224158512  0.5461945074317072  0.6911729877673309   F   F   F
  0.6753539566986504  0.4538069409854160  0.1911734863912287   F   F   F
  0.8244426986852076  0.9538186278693591  0.6912755083783828   T   T   T
  0.2554254229137740  0.0666023202507517  0.8022045467418053   F   F   F
  0.2445749139216531  0.5665997719643769  0.3022080368802733   F   F   F
  0.2554254229137740  0.4333976487666718  0.8022045467418053   F   F   F
  0.2445963089724669  0.9334361955041526  0.3022372853136756   T   T   T
  0.7445804322368432  0.9333909004167178  0.1977976298107934   T   T   T
  0.7554242826186055  0.4333976487666718  0.6977917137505756   F   F   F
  0.7445722964958890  0.5665997719643769  0.1977922123744733   F   F   F
  0.7554242826186055  0.0666023202507517  0.6977917137505756   F   F   F
  0.2915289566001675  0.1271842567541057  0.1038205131066334   F   F   F
  0.2082947643880093  0.6271623965747187  0.6038041310257888   T   T   T
  0.2915289566001675  0.3728157122633107  0.1038205131066334   F   F   F
  0.2083960330727044  0.8728771916820036  0.6038829995754259   T   T   T
  0.7083115075774241  0.8728722404167973  0.8960390318268568   T   T   T
  0.7915302781893274  0.3728157122633107  0.3961797361481132   F   F   F
  0.7083230190203245  0.6271335171520362  0.8961412566846976   T   T   T
  0.7915302781893274  0.1271842567541057  0.3961797361481132   F   F   F
  0.2010414133300102  0.0428271411325980  0.0290772224562801   F   F   F
  0.2989584311285540  0.5428263549588834  0.5290770229838415   F   F   F
  0.2010414133300102  0.4571730796152025  0.0290772224562801   F   F   F
  0.2989417343886251  0.9573759190245464  0.5290688302424503   T   T   T
  0.7989220272351402  0.9572208654099672  0.9708988082765966   T   T   T
  0.7010412577885745  0.4571730796152025  0.4709227276470074   F   F   F
  0.7989602450945767  0.5428263549588834  0.9709259684163243   F   F   F
  0.7010412577885745  0.0428271411325980  0.4709227276470074   F   F   F
  0.2968894635383705  0.9978541882830996  0.1470277059009675   F   F   F
  0.2031103809201937  0.4978562331087062  0.6470272072770697   F   F   F
  0.2968894635383705  0.5021437049261337  0.1470277059009675   F   F   F
  0.2031103809201937  0.0021436352165622  0.6470272072770697   F   F   F
  0.7031092406250252  0.0021436352165622  0.8529705489725998   F   F   F
  0.7968873384894692  0.5021437049261337  0.3529725433537791   F   F   F
  0.7031092406250252  0.4978562331087062  0.8529705489725998   F   F   F
  0.7968873384894692  0.9978541882830996  0.3529725433537791   F   F   F
  0.1089945125258041  0.1267462458944166  0.0958675716257531   F   F   F
  0.3909010942433556  0.6267949822368010  0.5957620567694174   T   T   T
  0.1089945125258041  0.3732537231230069  0.0958675716257531   F   F   F
  0.3908174316838982  0.8732774599885141  0.5957163429199623   T   T   T
  0.8908623418015353  0.8732639447243712  0.9043119751940124   T   T   T
  0.6089963264918268  0.3732537231230069  0.4041326776289935   F   F   F
  0.8908666194171306  0.6267882160052765  0.9042873177099411   T   T   T
  0.6089963264918268  0.1267462458944166  0.4041326776289935   F   F   F
  0.0831230624880561  0.0463555451647792  0.9432918525879828   F   F   F
  0.4168772743473781  0.5463556148743507  0.4432953427264508   F   F   F
  0.0831230624880561  0.4536443231604892  0.9432918525879828   F   F   F
  0.4168970087447461  0.9536732005178150  0.4432464104700662   T   T   T
  0.9168387612598780  0.9536515542066137  0.0567756788257220   T   T   T
  0.5831219221928876  0.4536443231604892  0.5567044079043981   F   F   F
  0.9168746569216140  0.5463556148743507  0.0567046073768367   F   F   F
  0.5831219221928876  0.0463555451647792  0.5567044079043981   F   F   F
  0.1289594096811513  0.0794088515588598  0.7630605786104070   F   F   F
  0.3710404347774130  0.5794078136547611  0.2630588335983788   F   F   F
  0.1289594096811513  0.4205916209193248  0.7630605786104070   F   F   F
  0.3710946967681629  0.9205771617807451  0.2629622877165407   T   T   T
  0.8710653715100528  0.9205785633057345  0.2369867956228671   T   T   T
  0.6289572846322500  0.4205916209193248  0.7369409170324701   F   F   F
  0.8710392944822516  0.5794078136547611  0.2369414156563678   F   F   F
  0.6289572846322500  0.0794088515588598  0.7369409170324701   F   F   F
  0.0735948387243730  0.9602884464449222  0.7910012836296859   T   T   T
  0.4264234770219275  0.4603035986101247  0.2908791712086156   F   F   F
  0.0735763674366368  0.5396948290424461  0.7908816640992882   F   F   F
  0.4264234770219275  0.0396965214455207  0.2908791712086156   F   F   F
  0.9264218443498962  0.0396965214455207  0.2091210780461239   F   F   F
  0.5735747347645983  0.5396948290424461  0.7091213273008705   F   F   F
  0.9264218443498962  0.4603035986101247  0.2091210780461239   F   F   F
  0.5735767223738529  0.9602728574139346  0.7089173005994814   T   T   T
  0.2164897374951735  0.1361624724563342  0.6465164061644657   F   F   F
  0.2836264696975119  0.6361856403569150  0.1465667767335598   T   T   T
  0.2164897374951735  0.3638374965610893  0.6465164061644657   F   F   F
  0.2836426045395243  0.8637883452363343  0.1466258857577513   T   T   T
  0.7837079446217253  0.8637674763292695  0.3533589181730801   T   T   T
  0.7164920438380662  0.3638374965610893  0.8534865852357001   F   F   F
  0.7836045112756266  0.6362114774197409  0.3534141530136470   T   T   T
  0.7164920438380662  0.1361624724563342  0.8534865852357001   F   F   F
  0.4959060151645250  0.8530476355085724  0.7131368432519609   T   T   T
  0.0041870743915737  0.3531359346833085  0.2140092128513800   F   F   F
  0.4958432087871401  0.6469458825576416  0.7133978308131874   T   T   T
  0.0041870743915737  0.1468645377948761  0.2140092128513800   F   F   F
  0.5041889868329790  0.1468645377948761  0.2859910364033666   F   F   F
  0.9958921591778396  0.6469349531792348  0.7867941280546961   T   T   T
  0.5041889868329790  0.3531359346833085  0.2859910364033666   F   F   F
  0.9959281488276602  0.8530498418220895  0.7868250879233230   T   T   T
  0.3779373370844737  0.8332964791228629  0.7857853482536257   T   T   T
  0.1223394027201721  0.3330694992409491  0.2858078061360345   F   F   F
  0.3778316499763767  0.6668317243255154  0.7857586736260287   T   T   T
  0.1223394027201721  0.1669304697764744  0.2858078061360345   F   F   F
  0.6223397395555992  0.1669304697764744  0.2141924431187121   F   F   F
  0.8779033829403549  0.6667342119703031  0.7141893656574386   T   T   T
  0.6223397395555992  0.3330694992409491  0.2141924431187121   F   F   F
  0.8779518961279906  0.8333476714480239  0.7141740491974794   T   T   T
  0.4238417697384392  0.7500324278997890  0.6468963615919220   T   T   T
  0.0759210660716789  0.2499999845087117  0.1472423470712698   F   F   F
  0.5759233724145716  0.2499999845087117  0.3527571543048325   F   F   F
  0.9238075855383392  0.7500203872719179  0.8529475691919081   T   T   T
  0.3174306201159020  0.8647365785725116  0.9552246490223174   T   T   T
  0.1824719122124066  0.3646364887844626  0.4553085173556966   F   F   F
  0.3174253985800721  0.6353106786014805  0.9552122461620387   T   T   T
  0.1824719122124066  0.1353634802329609  0.4553085173556966   F   F   F
  0.6824737261784293  0.1353634802329609  0.0446917318990501   F   F   F
  0.8174511778599236  0.6352787118745136  0.5447622545587105   T   T   T
  0.6824737261784293  0.3646364887844626  0.0446917318990501   F   F   F
  0.8174375254440668  0.8647492211655763  0.5447565188429463   T   T   T
  0.2477941643004486  0.8465656813738371  0.7903153053284584   T   T   T
  0.2524421114837594  0.3470289556854951  0.2906039518682988   F   F   F
  0.2477362081595464  0.6532635923607574  0.7902424238992154   T   T   T
  0.2524421114837594  0.1529710133319284  0.2906039518682988   F   F   F
  0.7524404788117280  0.1529710133319284  0.2093955495078035   F   F   F
  0.7477176688856726  0.6532336158981514  0.7096717291664750   T   T   T
  0.7524404788117280  0.3470289556854951  0.2093955495078035   F   F   F
  0.7477532250260058  0.8466373769516065  0.7096117163758916   T   T   T
  0.2959963992253750  0.7500311421828120  0.0501819827106988   T   T   T
  0.2047514730139781  0.2499999845087117  0.5502479715865078   F   F   F
  0.7047488555882140  0.2499999845087117  0.9497535240563693   F   F   F
  0.7957178608452272  0.7500103970827652  0.4499196906124799   T   T   T
  0.1961594945589537  0.8321542675204205  0.0069128156748222   T   T   T
  0.3039663962308268  0.3327165732493995  0.5062562540965345   F   F   F
  0.1961931000025945  0.6679463246353300  0.0068393495318591   T   T   T
  0.3039663962308268  0.1672833957680240  0.5062562540965345   F   F   F
  0.8039677178199867  0.1672833957680240  0.9937437457890610   F   F   F
  0.6961166056604589  0.6676894042296848  0.4933176289174565   T   T   T
  0.8039677178199867  0.3327165732493995  0.9937437457890610   F   F   F
  0.6960905388809707  0.8324067165533180  0.4930098853625316   T   T   T
  0.0928428641137922  0.7500454600907317  0.0201706672396188   T   T   T
  0.4068436185756568  0.2499999845087117  0.5199588865784506   F   F   F
  0.9068449401648166  0.2499999845087117  0.9800426090644265   F   F   F
  0.5929467350598988  0.7500269560849788  0.4797594053079879   T   T   T
  0.0812700742078819  0.8698334487042950  0.9346987025927752   T   T   T
  0.4191683039040441  0.3696157156837501  0.4342048778308225   F   F   F
  0.0813232707410833  0.6302576146756599  0.9345756176911466   T   T   T
  0.4191683039040441  0.1303842533336734  0.4342048778308225   F   F   F
  0.9191691331163412  0.1303842533336734  0.0657950722724649   F   F   F
  0.5810825496171064  0.6302952684063867  0.5654238470895431   T   T   T
  0.9191691331163412  0.3696157156837501  0.0657950722724649   F   F   F
  0.5811422385203597  0.8698191056848495  0.5651774478939346   T   T   T
  0.1214403312502276  0.8399408914710864  0.7478658779901052   T   T   T
  0.3785939882759877  0.3399014617306690  0.2475052014770824   F   F   F
  0.1213789906241297  0.6600800316800186  0.7477430700293998   T   T   T
  0.3785939882759877  0.1600985072867545  0.2475052014770824   F   F   F
  0.8785923556039563  0.1600985072867545  0.2524942998990269   F   F   F
  0.6213795883264313  0.6600744437839380  0.7521749646972271   T   T   T
  0.8785923556039563  0.3399014617306690  0.2524942998990269   F   F   F
  0.6214190803374724  0.8399020029063544  0.7519633502081206   T   T   T
  0.2027377890925475  0.7499977487008127  0.6707787775805110   T   T   T
  0.2968136375010317  0.2499999845087117  0.1713180563201462   F   F   F
  0.7968134819595960  0.2499999845087117  0.3286821929346004   F   F   F
  0.7027732805147662  0.7499912894261571  0.8290399633621216   T   T   T
  0.4240098456256689  0.0712240900116683  0.6879802938438928   F   F   F
  0.0759899988328954  0.5712215417252935  0.1879807924677834   F   F   F
  0.4240098456256689  0.4287758790057552  0.6879802938438928   F   F   F
  0.0759493712442830  0.9288331571878446  0.1882061134513764   T   T   T
  0.5759252132389415  0.9288393481964776  0.3117816789531560   T   T   T
  0.9240091977073703  0.4287758790057552  0.8120167145271324   F   F   F
  0.5759923051757880  0.5712215417252935  0.3120194567869561   F   F   F
  0.9240091977073703  0.0712240900116683  0.8120167145271324   F   F   F
  0.3227200462962543  0.0323507269059107  0.8432556054107536   F   F   F
  0.1772802905391799  0.5323493365792871  0.3432575997919329   F   F   F
  0.3227200462962543  0.4676490910732838  0.8432556054107536   F   F   F
  0.1773112582817971  0.9676861730436782  0.3433052902605078   T   T   T
  0.6773194761599199  0.9677065212599142  0.1566806944887351   T   T   T
  0.8227174288704902  0.4676490910732838  0.6567428987175532   F   F   F
  0.6772791502440114  0.5323493365792871  0.1567426494628066   F   F   F
  0.8227174288704902  0.0323507269059107  0.6567428987175532   F   F   F
  0.2779388627266144  0.0519581571749583  0.0611307027569552   F   F   F
  0.2220614741088127  0.5519591331138969  0.5611303537087835   F   F   F
  0.2779388627266144  0.4480418118424652  0.0611307027569552   F   F   F
  0.2220853806112010  0.9480968808749997  0.5611228951824762   T   T   T
  0.7220511253726092  0.9480444243962977  0.9387761928166239   T   T   T
  0.7779406766926442  0.4480418118424652  0.4388693969220654   F   F   F
  0.7220608261905141  0.5519591331138969  0.9388718898127308   F   F   F
  0.7779406766926442  0.0519581571749583  0.4388693969220654   F   F   F
  0.1225102574926140  0.0527777912894223  0.0479940648314354   F   F   F
  0.3774895869659503  0.5527797741498759  0.5479938653589969   F   F   F
  0.1225102574926140  0.4472221777280012  0.0479940648314354   F   F   F
  0.3774396281106424  0.9472837078418539  0.5478070107342753   T   T   T
  0.8774378722687006  0.9472648947049624  0.9521126965535116   T   T   T
  0.6225120714586438  0.4472221777280012  0.4520058852718520   F   F   F
  0.8774894314245145  0.5527797741498759  0.9520046387693171   F   F   F
  0.6225120714586438  0.0527777912894223  0.4520058852718520   F   F   F
  0.0722297167086126  0.0390952886079958  0.8235415244030406   F   F   F
  0.4277701277499517  0.5390957107400993  0.3235405272696497   F   F   F
  0.0722297167086126  0.4609047307555016  0.8235415244030406   F   F   F
  0.4277494913492331  0.9608581179296167  0.3235093255373429   T   T   T
  0.9277565029708765  0.9608899681745052  0.1765084794833899   T   T   T
  0.5722305459209096  0.4609047307555016  0.6764599712398365   F   F   F
  0.9277709569622488  0.5390957107400993  0.1764597219850899   F   F   F
  0.5722305459209096  0.0390952886079958  0.6764599712398365   F   F   F
  0.2011044375688371  0.0703823036238376  0.7135285761392041   F   F   F
  0.2988958992665900  0.5703807622589849  0.2135283268844574   F   F   F
  0.2011044375688371  0.4296176653935859  0.7135285761392041   F   F   F
  0.2989493252922158  0.9295684613276539  0.2135975302141905   T   T   T
  0.7989352425731995  0.9296192788920792  0.2864463356130797   T   T   T
  0.7011052667811342  0.4296176653935859  0.7864691801104584   F   F   F
  0.7988962361020242  0.5703807622589849  0.2864719223702821   F   F   F
  0.7011052667811342  0.0703823036238376  0.7864691801104584   F   F   F
  0.4223695189884207  0.8277531124978866  0.6848731713519696   T   T   T
  0.0776148424901066  0.3277151940767524  0.1851852221033425   F   F   F
  0.4223568540286249  0.6723432164612483  0.6849582867109181   T   T   T
  0.0776148424901066  0.1722847749406711  0.1851852221033425   F   F   F
  0.5776171488329993  0.1722847749406711  0.3148150271514041   F   F   F
  0.9223607451079575  0.6723011172203626  0.8151038934310060   T   T   T
  0.5776171488329993  0.3277151940767524  0.3148150271514041   F   F   F
  0.9223745881828317  0.8277474324733085  0.8151263208378414   T   T   T
  0.3169663022054085  0.8744505939898986  0.8346897990292179   T   T   T
  0.1830681805969121  0.3744866985200090  0.3347841347761005   F   F   F
  0.3169613260646544  0.6255459358920211  0.8346936581462346   T   T   T
  0.1830681805969121  0.1255132704974145  0.3347841347761005   F   F   F
  0.6830695021860791  0.1255132704974145  0.1652161144786461   F   F   F
  0.8169628746109500  0.6255406219896866  0.6653073595104717   T   T   T
  0.6830695021860791  0.3744866985200090  0.1652161144786461   F   F   F
  0.8169606759027986  0.8744633636080504  0.6653119574138214   T   T   T
  0.2729344036750972  0.8276267618853185  0.0399900247736552   T   T   T
  0.2273308913268437  0.3277297944387385  0.5397963675621256   F   F   F
  0.2729570454455370  0.6724380908784240  0.0399920853712321   T   T   T
  0.2273308913268437  0.1722701745786850  0.5397963675621256   F   F   F
  0.7273292586548052  0.1722701745786850  0.9602013886875440   F   F   F
  0.7728605698627119  0.6723385418883999  0.4601129016456357   T   T   T
  0.7273292586548052  0.3277297944387385  0.9602013886875440   F   F   F
  0.7728753630552129  0.8276912614133854  0.4600666985698106   T   T   T
  0.1171815760673854  0.8278926100124614  0.0234127978585002   T   T   T
  0.3829047477362622  0.3279865594254545  0.5228270011711871   F   F   F
  0.1172271771686701  0.6722171481789531  0.0232959708782604   T   T   T
  0.3829047477362622  0.1720134095919690  0.5228270011711871   F   F   F
  0.8829055769485592  0.1720134095919690  0.9771707550784754   F   F   F
  0.6171588134506851  0.6721426016280926  0.4767722395566202   T   T   T
  0.8829055769485592  0.3279865594254545  0.9771707550784754   F   F   F
  0.6171319745333075  0.8279157863371926  0.4765227806045121   T   T   T
  0.0684617830850068  0.8805811220301797  0.8155995710449074   T   T   T
  0.4316421794227736  0.3805307449230426  0.3150521046809729   F   F   F
  0.0684416926937567  0.6194148277215799  0.8155176145489211   T   T   T
  0.4316421794227736  0.1194692240943809  0.3150521046809729   F   F   F
  0.9316410391276122  0.1194692240943809  0.1849473966951294   F   F   F
  0.5683870374006795  0.6194243859976943  0.6845373437902544   T   T   T
  0.9316410391276122  0.3805307449230426  0.1849473966951294   F   F   F
  0.5684478577627200  0.8805632540128138  0.6843047537271261   T   T   T
  0.1949158311411680  0.8281172151682078  0.7034761005698410   T   T   T
  0.3049811849512878  0.3281471634073441  0.2034828209627761   F   F   F
  0.1948752914805845  0.6718785676636606  0.7034376725992331   T   T   T
  0.3049811849512878  0.1718528056100794  0.2034828209627761   F   F   F
  0.8049820141635848  0.1718528056100794  0.2965174282919705   F   F   F
  0.6948817976466228  0.6718758020993942  0.7965552448886647   T   T   T
  0.8049820141635848  0.3281471634073441  0.2965174282919705   F   F   F
  0.6948851100013823  0.8280934059716715  0.7964846584581990   T   T   T
  0.3013466012003774  0.7500312568064749  0.4299365691807510   T   T   T
  0.4227683287021111  0.7687931558666129  0.3867643945373995   T   T   T
  0.4593240129290976  0.7732170090779337  0.3745036412194137   T   T   T
 
  0.00000000E+00  0.00000000E+00  0.00000000E+00
  0.00000000E+00  0.00000000E+00  0.00000000E+00
  0.00000000E+00  0.00000000E+00  0.00000000E+00
  0.00000000E+00  0.00000000E+00  0.00000000E+00
  0.00000000E+00  0.00000000E+00  0.00000000E+00
  0.00000000E+00  0.00000000E+00  0.00000000E+00
  0.00000000E+00  0.00000000E+00  0.00000000E+00
  0.00000000E+00  0.00000000E+00  0.00000000E+00
  0.00000000E+00  0.00000000E+00  0.00000000E+00
  0.00000000E+00  0.00000000E+00  0.00000000E+00
  0.00000000E+00  0.00000000E+00  0.00000000E+00
  0.00000000E+00  0.00000000E+00  0.00000000E+00
  0.00000000E+00  0.00000000E+00  0.00000000E+00
  0.00000000E+00  0.00000000E+00  0.00000000E+00
  0.00000000E+00  0.00000000E+00  0.00000000E+00
  0.00000000E+00  0.00000000E+00  0.00000000E+00
  0.00000000E+00  0.00000000E+00  0.00000000E+00
  0.00000000E+00  0.00000000E+00  0.00000000E+00
  0.00000000E+00  0.00000000E+00  0.00000000E+00
  0.00000000E+00  0.00000000E+00  0.00000000E+00
  0.00000000E+00  0.00000000E+00  0.00000000E+00
  0.00000000E+00  0.00000000E+00  0.00000000E+00
  0.00000000E+00  0.00000000E+00  0.00000000E+00
  0.00000000E+00  0.00000000E+00  0.00000000E+00
  0.00000000E+00  0.00000000E+00  0.00000000E+00
  0.00000000E+00  0.00000000E+00  0.00000000E+00
  0.00000000E+00  0.00000000E+00  0.00000000E+00
  0.00000000E+00  0.00000000E+00  0.00000000E+00
  0.00000000E+00  0.00000000E+00  0.00000000E+00
  0.00000000E+00  0.00000000E+00  0.00000000E+00
  0.00000000E+00  0.00000000E+00  0.00000000E+00
  0.00000000E+00  0.00000000E+00  0.00000000E+00
  0.00000000E+00  0.00000000E+00  0.00000000E+00
  0.00000000E+00  0.00000000E+00  0.00000000E+00
  0.00000000E+00  0.00000000E+00  0.00000000E+00
  0.00000000E+00  0.00000000E+00  0.00000000E+00
  0.00000000E+00  0.00000000E+00  0.00000000E+00
  0.00000000E+00  0.00000000E+00  0.00000000E+00
  0.00000000E+00  0.00000000E+00  0.00000000E+00
  0.00000000E+00  0.00000000E+00  0.00000000E+00
  0.00000000E+00  0.00000000E+00  0.00000000E+00
  0.00000000E+00  0.00000000E+00  0.00000000E+00
  0.00000000E+00  0.00000000E+00  0.00000000E+00
  0.00000000E+00  0.00000000E+00  0.00000000E+00
  0.00000000E+00  0.00000000E+00  0.00000000E+00
  0.00000000E+00  0.00000000E+00  0.00000000E+00
  0.00000000E+00  0.00000000E+00  0.00000000E+00
  0.00000000E+00  0.00000000E+00  0.00000000E+00
  0.00000000E+00  0.00000000E+00  0.00000000E+00
  0.00000000E+00  0.00000000E+00  0.00000000E+00
  0.00000000E+00  0.00000000E+00  0.00000000E+00
  0.00000000E+00  0.00000000E+00  0.00000000E+00
  0.00000000E+00  0.00000000E+00  0.00000000E+00
  0.00000000E+00  0.00000000E+00  0.00000000E+00
  0.00000000E+00  0.00000000E+00  0.00000000E+00
  0.00000000E+00  0.00000000E+00  0.00000000E+00
  0.00000000E+00  0.00000000E+00  0.00000000E+00
  0.00000000E+00  0.00000000E+00  0.00000000E+00
  0.00000000E+00  0.00000000E+00  0.00000000E+00
  0.00000000E+00  0.00000000E+00  0.00000000E+00
  0.00000000E+00  0.00000000E+00  0.00000000E+00
  0.00000000E+00  0.00000000E+00  0.00000000E+00
  0.00000000E+00  0.00000000E+00  0.00000000E+00
  0.00000000E+00  0.00000000E+00  0.00000000E+00
  0.00000000E+00  0.00000000E+00  0.00000000E+00
  0.00000000E+00  0.00000000E+00  0.00000000E+00
  0.00000000E+00  0.00000000E+00  0.00000000E+00
  0.00000000E+00  0.00000000E+00  0.00000000E+00
  0.00000000E+00  0.00000000E+00  0.00000000E+00
  0.00000000E+00  0.00000000E+00  0.00000000E+00
  0.00000000E+00  0.00000000E+00  0.00000000E+00
  0.00000000E+00  0.00000000E+00  0.00000000E+00
  0.00000000E+00  0.00000000E+00  0.00000000E+00
  0.00000000E+00  0.00000000E+00  0.00000000E+00
  0.00000000E+00  0.00000000E+00  0.00000000E+00
  0.00000000E+00  0.00000000E+00  0.00000000E+00
  0.00000000E+00  0.00000000E+00  0.00000000E+00
  0.00000000E+00  0.00000000E+00  0.00000000E+00
  0.00000000E+00  0.00000000E+00  0.00000000E+00
  0.00000000E+00  0.00000000E+00  0.00000000E+00
  0.00000000E+00  0.00000000E+00  0.00000000E+00
  0.00000000E+00  0.00000000E+00  0.00000000E+00
  0.00000000E+00  0.00000000E+00  0.00000000E+00
  0.00000000E+00  0.00000000E+00  0.00000000E+00
  0.00000000E+00  0.00000000E+00  0.00000000E+00
  0.00000000E+00  0.00000000E+00  0.00000000E+00
  0.00000000E+00  0.00000000E+00  0.00000000E+00
  0.00000000E+00  0.00000000E+00  0.00000000E+00
  0.00000000E+00  0.00000000E+00  0.00000000E+00
  0.00000000E+00  0.00000000E+00  0.00000000E+00
  0.00000000E+00  0.00000000E+00  0.00000000E+00
  0.00000000E+00  0.00000000E+00  0.00000000E+00
  0.00000000E+00  0.00000000E+00  0.00000000E+00
  0.00000000E+00  0.00000000E+00  0.00000000E+00
  0.00000000E+00  0.00000000E+00  0.00000000E+00
  0.00000000E+00  0.00000000E+00  0.00000000E+00
  0.00000000E+00  0.00000000E+00  0.00000000E+00
  0.00000000E+00  0.00000000E+00  0.00000000E+00
  0.00000000E+00  0.00000000E+00  0.00000000E+00
  0.00000000E+00  0.00000000E+00  0.00000000E+00
  0.00000000E+00  0.00000000E+00  0.00000000E+00
  0.00000000E+00  0.00000000E+00  0.00000000E+00
  0.00000000E+00  0.00000000E+00  0.00000000E+00
  0.00000000E+00  0.00000000E+00  0.00000000E+00
  0.00000000E+00  0.00000000E+00  0.00000000E+00
  0.00000000E+00  0.00000000E+00  0.00000000E+00
  0.00000000E+00  0.00000000E+00  0.00000000E+00
  0.00000000E+00  0.00000000E+00  0.00000000E+00
  0.00000000E+00  0.00000000E+00  0.00000000E+00
  0.00000000E+00  0.00000000E+00  0.00000000E+00
  0.00000000E+00  0.00000000E+00  0.00000000E+00
  0.00000000E+00  0.00000000E+00  0.00000000E+00
  0.00000000E+00  0.00000000E+00  0.00000000E+00
  0.00000000E+00  0.00000000E+00  0.00000000E+00
  0.00000000E+00  0.00000000E+00  0.00000000E+00
  0.00000000E+00  0.00000000E+00  0.00000000E+00
  0.00000000E+00  0.00000000E+00  0.00000000E+00
  0.00000000E+00  0.00000000E+00  0.00000000E+00
  0.00000000E+00  0.00000000E+00  0.00000000E+00
  0.00000000E+00  0.00000000E+00  0.00000000E+00
  0.00000000E+00  0.00000000E+00  0.00000000E+00
  0.00000000E+00  0.00000000E+00  0.00000000E+00
  0.00000000E+00  0.00000000E+00  0.00000000E+00
  0.00000000E+00  0.00000000E+00  0.00000000E+00
  0.00000000E+00  0.00000000E+00  0.00000000E+00
  0.00000000E+00  0.00000000E+00  0.00000000E+00
  0.00000000E+00  0.00000000E+00  0.00000000E+00
  0.00000000E+00  0.00000000E+00  0.00000000E+00
  0.00000000E+00  0.00000000E+00  0.00000000E+00
  0.00000000E+00  0.00000000E+00  0.00000000E+00
  0.00000000E+00  0.00000000E+00  0.00000000E+00
  0.00000000E+00  0.00000000E+00  0.00000000E+00
  0.00000000E+00  0.00000000E+00  0.00000000E+00
  0.00000000E+00  0.00000000E+00  0.00000000E+00
  0.00000000E+00  0.00000000E+00  0.00000000E+00
  0.00000000E+00  0.00000000E+00  0.00000000E+00
  0.00000000E+00  0.00000000E+00  0.00000000E+00
  0.00000000E+00  0.00000000E+00  0.00000000E+00
  0.00000000E+00  0.00000000E+00  0.00000000E+00
  0.00000000E+00  0.00000000E+00  0.00000000E+00
  0.00000000E+00  0.00000000E+00  0.00000000E+00
  0.00000000E+00  0.00000000E+00  0.00000000E+00
  0.00000000E+00  0.00000000E+00  0.00000000E+00
  0.00000000E+00  0.00000000E+00  0.00000000E+00
  0.00000000E+00  0.00000000E+00  0.00000000E+00
  0.00000000E+00  0.00000000E+00  0.00000000E+00
  0.00000000E+00  0.00000000E+00  0.00000000E+00
  0.00000000E+00  0.00000000E+00  0.00000000E+00
  0.00000000E+00  0.00000000E+00  0.00000000E+00
  0.00000000E+00  0.00000000E+00  0.00000000E+00
  0.00000000E+00  0.00000000E+00  0.00000000E+00
  0.00000000E+00  0.00000000E+00  0.00000000E+00
  0.00000000E+00  0.00000000E+00  0.00000000E+00
  0.00000000E+00  0.00000000E+00  0.00000000E+00
  0.00000000E+00  0.00000000E+00  0.00000000E+00
  0.00000000E+00  0.00000000E+00  0.00000000E+00
  0.00000000E+00  0.00000000E+00  0.00000000E+00
  0.00000000E+00  0.00000000E+00  0.00000000E+00
  0.00000000E+00  0.00000000E+00  0.00000000E+00
  0.00000000E+00  0.00000000E+00  0.00000000E+00
  0.00000000E+00  0.00000000E+00  0.00000000E+00
  0.00000000E+00  0.00000000E+00  0.00000000E+00
  0.00000000E+00  0.00000000E+00  0.00000000E+00
  0.00000000E+00  0.00000000E+00  0.00000000E+00
  0.00000000E+00  0.00000000E+00  0.00000000E+00
  0.00000000E+00  0.00000000E+00  0.00000000E+00
  0.00000000E+00  0.00000000E+00  0.00000000E+00
  0.00000000E+00  0.00000000E+00  0.00000000E+00
  0.00000000E+00  0.00000000E+00  0.00000000E+00
  0.00000000E+00  0.00000000E+00  0.00000000E+00
  0.00000000E+00  0.00000000E+00  0.00000000E+00