 O Si Hf  H                             
   1.00000000000000     
    20.3096463179830877    0.0000000000000000    0.0000000000000000
     0.0000000000000000   19.8625212307842212    0.0000000000000000
     0.0000000000000000    0.0000000000000000   13.3711533343531652
   O    Si   Hf   H 
   192    96     1     2
Selective dynamics
Direct
  0.5025887620190588  0.0727797837547186  0.7075253542784736   F   F   F
  0.9974078170954428  0.5727822700759333  0.2075251050237270   F   F   F
  0.5025887620190588  0.4272201852627049  0.7075253542784736   F   F   F
  0.9973737655183398  0.9272087139404650  0.2076358621837511   T   T   T
  0.4973324812218353  0.9270502107813067  0.2925757074584819   T   T   T
  0.0025909363056442  0.4272201852627049  0.7924746456071219   F   F   F
  0.4974089573906113  0.5727822700759333  0.2924751442310196   F   F   F
  0.0025909363056442  0.0727797837547186  0.7924746456071219   F   F   F
  0.3868826604352336  0.0693889755477741  0.7958400994969068   F   F   F
  0.1131176764001935  0.5693889445651976  0.2958398502421602   F   F   F
  0.3868826604352336  0.4306109934696494  0.7958400994969068   F   F   F
  0.1130502835739837  0.9307871162254683  0.2961248580530118   T   T   T
  0.6129470181426261  0.9307780266684178  0.2039540660926896   T   T   T
  0.8868839820244006  0.4306109934696494  0.7041599003886887   F   F   F
  0.6131175208587578  0.5693889445651976  0.2041603990125864   F   F   F
  0.8868839820244006  0.0693889755477741  0.7041599003886887   F   F   F
  0.4023994249847505  0.1395880194556014  0.6299568772694428   F   F   F
  0.0976576738745364  0.6396838855036100  0.1302950812897428   T   T   T
  0.4023994249847505  0.3604119495618221  0.6299568772694428   F   F   F
  0.0976734028583057  0.8602658820384954  0.1307065434725576   T   T   T
  0.5976379460275795  0.8603624416887093  0.3696539096039036   T   T   T
  0.9023987770664448  0.3604119495618221  0.8700446183734343   F   F   F
  0.5975546102350052  0.6396977550304956  0.3697423312700672   T   T   T
  0.9023987770664448  0.1395880194556014  0.8700446183734343   F   F   F
  0.4045033513324086  0.0051825243534793  0.6227510665520910   F   F   F
  0.0954969855030257  0.5051825940630508  0.1227515651759887   F   F   F
  0.4045033513324086  0.4948173439717962  0.6227510665520910   F   F   F
  0.0955071464292788  0.9947162314103426  0.1226756755955890   T   T   T
  0.5954583727676772  0.9947741851170335  0.3772960787966428   T   T   T
  0.9045012262835073  0.4948173439717962  0.8772466896975715   F   F   F
  0.5954953528309943  0.5051825940630508  0.3772486840787579   F   F   F
  0.9045012262835073  0.0051825243534793  0.8772466896975715   F   F   F
  0.3244128379609492  0.0395323428922509  0.9639931334033705   F   F   F
  0.1755870064976151  0.5395337215997955  0.4639936320272682   F   F   F
  0.3244128379609492  0.4604677268173205  0.9639931334033705   F   F   F
  0.1756280474361671  0.9606219791184917  0.4640368869429914   T   T   T
  0.6755944120141125  0.9605163142187113  0.0360480378605405   T   T   T
  0.8244112052889179  0.4604677268173205  0.5360068664822251   F   F   F
  0.6755853738255837  0.5395337215997955  0.0360066172274784   F   F   F
  0.8244112052889179  0.0395323428922509  0.5360068664822251   F   F   F
  0.3244178544988272  0.9537822747089276  0.8087320013211957   T   T   T
  0.1753560817475446  0.4538069409854160  0.3088267628635180   F   F   F
  0.3246442550878825  0.5461945074317072  0.8088232727250499   F   F   F
  0.1753560817475446  0.0461928769937856  0.3088267628635180   F   F   F
  0.6753539566986504  0.0461928769937856  0.1911734863912287   F   F   F
  0.8246426224158512  0.5461945074317072  0.6911729877673309   F   F   F
  0.6753539566986504  0.4538069409854160  0.1911734863912287   F   F   F
  0.8244359427851262  0.9538362153137661  0.6913016255295352   T   T   T
  0.2554254229137740  0.0666023202507517  0.8022045467418053   F   F   F
  0.2445749139216531  0.5665997719643769  0.3022080368802733   F   F   F
  0.2554254229137740  0.4333976487666718  0.8022045467418053   F   F   F
  0.2446880639837210  0.9335855329570862  0.3021965950331863   T   T   T
  0.7444902399937191  0.9333220163166227  0.1979405080708700   T   T   T
  0.7554242826186055  0.4333976487666718  0.6977917137505756   F   F   F
  0.7445722964958890  0.5665997719643769  0.1977922123744733   F   F   F
  0.7554242826186055  0.0666023202507517  0.6977917137505756   F   F   F
  0.2915289566001675  0.1271842567541057  0.1038205131066334   F   F   F
  0.2081367307686382  0.6270675655517853  0.6040107778315436   T   T   T
  0.2915289566001675  0.3728157122633107  0.1038205131066334   F   F   F
  0.2078510444904145  0.8729312034141981  0.6040676421903655   T   T   T
  0.7085160268503246  0.8729291282088512  0.8962759464598890   T   T   T
  0.7915302781893274  0.3728157122633107  0.3961797361481132   F   F   F
  0.7084107721912228  0.6271589367005351  0.8962059891831334   T   T   T
  0.7915302781893274  0.1271842567541057  0.3961797361481132   F   F   F
  0.2010414133300102  0.0428271411325980  0.0290772224562801   F   F   F
  0.2989584311285540  0.5428263549588834  0.5290770229838415   F   F   F
  0.2010414133300102  0.4571730796152025  0.0290772224562801   F   F   F
  0.2989218799459353  0.9571089728945414  0.5294739318056173   T   T   T
  0.7989330075969373  0.9574816580641753  0.9711207948541531   T   T   T
  0.7010412577885745  0.4571730796152025  0.4709227276470074   F   F   F
  0.7989602450945767  0.5428263549588834  0.9709259684163243   F   F   F
  0.7010412577885745  0.0428271411325980  0.4709227276470074   F   F   F
  0.2968894635383705  0.9978541882830996  0.1470277059009675   F   F   F
  0.2031103809201937  0.4978562331087062  0.6470272072770697   F   F   F
  0.2968894635383705  0.5021437049261337  0.1470277059009675   F   F   F
  0.2031103809201937  0.0021436352165622  0.6470272072770697   F   F   F
  0.7031092406250252  0.0021436352165622  0.8529705489725998   F   F   F
  0.7968873384894692  0.5021437049261337  0.3529725433537791   F   F   F
  0.7031092406250252  0.4978562331087062  0.8529705489725998   F   F   F
  0.7968873384894692  0.9978541882830996  0.3529725433537791   F   F   F
  0.1089945125258041  0.1267462458944166  0.0958675716257531   F   F   F
  0.3912096499663106  0.6266964213109609  0.5960688347188757   T   T   T
  0.1089945125258041  0.3732537231230069  0.0958675716257531   F   F   F
  0.3913605661398020  0.8733166527679646  0.5958281508941083   T   T   T
  0.8906068774069756  0.8732620805379802  0.9043545907802777   T   T   T
  0.6089963264918268  0.3732537231230069  0.4041326776289935   F   F   F
  0.8908332904007479  0.6267943630081531  0.9042741665921182   T   T   T
  0.6089963264918268  0.1267462458944166  0.4041326776289935   F   F   F
  0.0831230624880561  0.0463555451647792  0.9432918525879828   F   F   F
  0.4168772743473781  0.5463556148743507  0.4432953427264508   F   F   F
  0.0831230624880561  0.4536443231604892  0.9432918525879828   F   F   F
  0.4167799148794018  0.9538510652652188  0.4432031060338644   T   T   T
  0.9168931664961661  0.9536032856119862  0.0567839296303496   T   T   T
  0.5831219221928876  0.4536443231604892  0.5567044079043981   F   F   F
  0.9168746569216140  0.5463556148743507  0.0567046073768367   F   F   F
  0.5831219221928876  0.0463555451647792  0.5567044079043981   F   F   F
  0.1289594096811513  0.0794088515588598  0.7630605786104070   F   F   F
  0.3710404347774130  0.5794078136547611  0.2630588335983788   F   F   F
  0.1289594096811513  0.4205916209193248  0.7630605786104070   F   F   F
  0.3712700383189357  0.9205978295581401  0.2625336741297451   T   T   T
  0.8710238692723002  0.9205800396324270  0.2369674958724534   T   T   T
  0.6289572846322500  0.4205916209193248  0.7369409170324701   F   F   F
  0.8710392944822516  0.5794078136547611  0.2369414156563678   F   F   F
  0.6289572846322500  0.0794088515588598  0.7369409170324701   F   F   F
  0.0736478310090523  0.9602789546492231  0.7910552833894229   T   T   T
  0.4264234770219275  0.4603035986101247  0.2908791712086156   F   F   F
  0.0735763674366368  0.5396948290424461  0.7908816640992882   F   F   F
  0.4264234770219275  0.0396965214455207  0.2908791712086156   F   F   F
  0.9264218443498962  0.0396965214455207  0.2091210780461239   F   F   F
  0.5735747347645983  0.5396948290424461  0.7091213273008705   F   F   F
  0.9264218443498962  0.4603035986101247  0.2091210780461239   F   F   F
  0.5735295941359952  0.9602645504100279  0.7088923806810196   T   T   T
  0.2164897374951735  0.1361624724563342  0.6465164061644657   F   F   F
  0.2837776507128046  0.6362211319814655  0.1465680699433982   T   T   T
  0.2164897374951735  0.3638374965610893  0.6465164061644657   F   F   F
  0.2837586695289889  0.8637645567417103  0.1466410473670991   T   T   T
  0.7836253122632844  0.8637791828972463  0.3534980960534592   T   T   T
  0.7164920438380662  0.3638374965610893  0.8534865852357001   F   F   F
  0.7835886502562529  0.6362083209768122  0.3534164017855185   T   T   T
  0.7164920438380662  0.1361624724563342  0.8534865852357001   F   F   F
  0.4959984373316575  0.8529093360425045  0.7140294509599875   T   T   T
  0.0041870743915737  0.3531359346833085  0.2140092128513800   F   F   F
  0.4960749314774568  0.6470472084241353  0.7138541717900813   T   T   T
  0.0041870743915737  0.1468645377948761  0.2140092128513800   F   F   F
  0.5041889868329790  0.1468645377948761  0.2859910364033666   F   F   F
  0.9959490808137926  0.6469829860202435  0.7869958169372370   T   T   T
  0.5041889868329790  0.3531359346833085  0.2859910364033666   F   F   F
  0.9958617949024533  0.8531856249569676  0.7872905125484695   T   T   T
  0.3777500956296730  0.8331868460236627  0.7858312520474295   T   T   T
  0.1223394027201721  0.3330694992409491  0.2858078061360345   F   F   F
  0.3779995249379400  0.6667981793685424  0.7860940828120362   T   T   T
  0.1223394027201721  0.1669304697764744  0.2858078061360345   F   F   F
  0.6223397395555992  0.1669304697764744  0.2141924431187121   F   F   F
  0.8780735947191998  0.6666881839285800  0.7141012900411212   T   T   T
  0.6223397395555992  0.3330694992409491  0.2141924431187121   F   F   F
  0.8780388663037867  0.8334026571108361  0.7141447274763544   T   T   T
  0.4240814973367211  0.7499864716574066  0.6470221880345004   T   T   T
  0.0759210660716789  0.2499999845087117  0.1472423470712698   F   F   F
  0.5759233724145716  0.2499999845087117  0.3527571543048325   F   F   F
  0.9237214098631746  0.7500478622211957  0.8529859730548452   T   T   T
  0.3173622977995892  0.8647356207087532  0.9552318902768024   T   T   T
  0.1824719122124066  0.3646364887844626  0.4553085173556966   F   F   F
  0.3173792849344422  0.6352502624250262  0.9552364615200323   T   T   T
  0.1824719122124066  0.1353634802329609  0.4553085173556966   F   F   F
  0.6824737261784293  0.1353634802329609  0.0446917318990501   F   F   F
  0.8174670894404703  0.6352550592422059  0.5447597835409815   T   T   T
  0.6824737261784293  0.3646364887844626  0.0446917318990501   F   F   F
  0.8174591466246676  0.8647527984966709  0.5448031384781263   T   T   T
  0.2476218380720260  0.8465606234038731  0.7903628518160305   T   T   T
  0.2524421114837594  0.3470289556854951  0.2906039518682988   F   F   F
  0.2478601168906611  0.6534983768171609  0.7901850872373193   T   T   T
  0.2524421114837594  0.1529710133319284  0.2906039518682988   F   F   F
  0.7524404788117280  0.1529710133319284  0.2093955495078035   F   F   F
  0.7479382216297374  0.6533934866502310  0.7097823033401810   T   T   T
  0.7524404788117280  0.3470289556854951  0.2093955495078035   F   F   F
  0.7478517152544440  0.8466200748349968  0.7097614457041056   T   T   T
  0.2962067854109682  0.7500058211718696  0.0502355602108842   T   T   T
  0.2047514730139781  0.2499999845087117  0.5502479715865078   F   F   F
  0.7047488555882140  0.2499999845087117  0.9497535240563693   F   F   F
  0.7956528407359212  0.7500026503231371  0.4499803140484073   T   T   T
  0.1961793449668523  0.8319717748220922  0.0071603534077745   T   T   T
  0.3039663962308268  0.3327165732493995  0.5062562540965345   F   F   F
  0.1962007497443734  0.6680772347135938  0.0069657849461785   T   T   T
  0.3039663962308268  0.1672833957680240  0.5062562540965345   F   F   F
  0.8039677178199867  0.1672833957680240  0.9937437457890610   F   F   F
  0.6960970702292668  0.6676136987086850  0.4933067723368336   T   T   T
  0.8039677178199867  0.3327165732493995  0.9937437457890610   F   F   F
  0.6960725594270609  0.8323952893210944  0.4933731156594479   T   T   T
  0.0927526930518937  0.7500300541251402  0.0200759052508704   T   T   T
  0.4068436185756568  0.2499999845087117  0.5199588865784506   F   F   F
  0.9068449401648166  0.2499999845087117  0.9800426090644265   F   F   F
  0.5929203705691662  0.7499993950492340  0.4796867362034155   T   T   T
  0.0813387491724942  0.8699963425970478  0.9350500319495867   T   T   T
  0.4191683039040441  0.3696157156837501  0.4342048778308225   F   F   F
  0.0813729159022729  0.6300980834870764  0.9347294240597044   T   T   T
  0.4191683039040441  0.1303842533336734  0.4342048778308225   F   F   F
  0.9191691331163412  0.1303842533336734  0.0657950722724649   F   F   F
  0.5810511804568983  0.6303324644216903  0.5654748908830614   T   T   T
  0.9191691331163412  0.3696157156837501  0.0657950722724649   F   F   F
  0.5809385390002120  0.8695257025596709  0.5655111623670066   T   T   T
  0.1212579100070950  0.8397243111322749  0.7483148992286675   T   T   T
  0.3785939882759877  0.3399014617306690  0.2475052014770824   F   F   F
  0.1214386713886110  0.6601539440122388  0.7480881182419606   T   T   T
  0.3785939882759877  0.1600985072867545  0.2475052014770824   F   F   F
  0.8785923556039563  0.1600985072867545  0.2524942998990269   F   F   F
  0.6216356497277558  0.6600429880776244  0.7521251537092328   T   T   T
  0.8785923556039563  0.3399014617306690  0.2524942998990269   F   F   F
  0.6215732071453323  0.8400309152643741  0.7522971236121155   T   T   T
  0.2024745239057623  0.7500296505425882  0.6704241577257033   T   T   T
  0.2968136375010317  0.2499999845087117  0.1713180563201462   F   F   F
  0.7968134819595960  0.2499999845087117  0.3286821929346004   F   F   F
  0.7028882031455326  0.7500421829553627  0.8292726529703828   T   T   T
  0.4240098456256689  0.0712240900116683  0.6879802938438928   F   F   F
  0.0759899988328954  0.5712215417252935  0.1879807924677834   F   F   F
  0.4240098456256689  0.4287758790057552  0.6879802938438928   F   F   F
  0.0759783165219540  0.9288007972233736  0.1882760767494921   T   T   T
  0.5759267796674672  0.9288143392338485  0.3118683921924710   T   T   T
  0.9240091977073703  0.4287758790057552  0.8120167145271324   F   F   F
  0.5759923051757880  0.5712215417252935  0.3120194567869561   F   F   F
  0.9240091977073703  0.0712240900116683  0.8120167145271324   F   F   F
  0.3227200462962543  0.0323507269059107  0.8432556054107536   F   F   F
  0.1772802905391799  0.5323493365792871  0.3432575997919329   F   F   F
  0.3227200462962543  0.4676490910732838  0.8432556054107536   F   F   F
  0.1773347697743766  0.9676958854671727  0.3433370992325067   T   T   T
  0.6772755490004753  0.9676908019311063  0.1567704722979810   T   T   T
  0.8227174288704902  0.4676490910732838  0.6567428987175532   F   F   F
  0.6772791502440114  0.5323493365792871  0.1567426494628066   F   F   F
  0.8227174288704902  0.0323507269059107  0.6567428987175532   F   F   F
  0.2779388627266144  0.0519581571749583  0.0611307027569552   F   F   F
  0.2220614741088127  0.5519591331138969  0.5611303537087835   F   F   F
  0.2779388627266144  0.4480418118424652  0.0611307027569552   F   F   F
  0.2219582036780096  0.9479989696909396  0.5611769230534553   T   T   T
  0.7220915131913591  0.9481664990192599  0.9389375635563727   T   T   T
  0.7779406766926442  0.4480418118424652  0.4388693969220654   F   F   F
  0.7220608261905141  0.5519591331138969  0.9388718898127308   F   F   F
  0.7779406766926442  0.0519581571749583  0.4388693969220654   F   F   F
  0.1225102574926140  0.0527777912894223  0.0479940648314354   F   F   F
  0.3774895869659503  0.5527797741498759  0.5479938653589969   F   F   F
  0.1225102574926140  0.4472221777280012  0.0479940648314354   F   F   F
  0.3774632491072392  0.9472560647219037  0.5478737657087256   T   T   T
  0.8774224344078558  0.9473009959862533  0.9521750037023237   T   T   T
  0.6225120714586438  0.4472221777280012  0.4520058852718520   F   F   F
  0.8774894314245145  0.5527797741498759  0.9520046387693171   F   F   F
  0.6225120714586438  0.0527777912894223  0.4520058852718520   F   F   F
  0.0722297167086126  0.0390952886079958  0.8235415244030406   F   F   F
  0.4277701277499517  0.5390957107400993  0.3235405272696497   F   F   F
  0.0722297167086126  0.4609047307555016  0.8235415244030406   F   F   F
  0.4277468668423260  0.9608909541807722  0.3235016915932252   T   T   T
  0.9277650105758295  0.9608842463810391  0.1765251246873929   T   T   T
  0.5722305459209096  0.4609047307555016  0.6764599712398365   F   F   F
  0.9277709569622488  0.5390957107400993  0.1764597219850899   F   F   F
  0.5722305459209096  0.0390952886079958  0.6764599712398365   F   F   F
  0.2011044375688371  0.0703823036238376  0.7135285761392041   F   F   F
  0.2988958992665900  0.5703807622589849  0.2135283268844574   F   F   F
  0.2011044375688371  0.4296176653935859  0.7135285761392041   F   F   F
  0.2989733838079452  0.9296075127081953  0.2135316958646249   T   T   T
  0.7989124364545815  0.9295876871662616  0.2865184148932310   T   T   T
  0.7011052667811342  0.4296176653935859  0.7864691801104584   F   F   F
  0.7988962361020242  0.5703807622589849  0.2864719223702821   F   F   F
  0.7011052667811342  0.0703823036238376  0.7864691801104584   F   F   F
  0.4224957872578553  0.8277177380181019  0.6852968851751874   T   T   T
  0.0776148424901066  0.3277151940767524  0.1851852221033425   F   F   F
  0.4225598829672445  0.6722751152889662  0.6853768247238590   T   T   T
  0.0776148424901066  0.1722847749406711  0.1851852221033425   F   F   F
  0.5776171488329993  0.1722847749406711  0.3148150271514041   F   F   F
  0.9223962692551049  0.6723215563869240  0.8151537189573176   T   T   T
  0.5776171488329993  0.3277151940767524  0.3148150271514041   F   F   F
  0.9223115119052276  0.8277982148622579  0.8152450773462955   T   T   T
  0.3168074275665309  0.8744347390662299  0.8346918626205010   T   T   T
  0.1830681805969121  0.3744866985200090  0.3347841347761005   F   F   F
  0.3169679784237840  0.6255518102737901  0.8346963543648022   T   T   T
  0.1830681805969121  0.1255132704974145  0.3347841347761005   F   F   F
  0.6830695021860791  0.1255132704974145  0.1652161144786461   F   F   F
  0.8170867504814386  0.6255362260291621  0.6653128789066558   T   T   T
  0.6830695021860791  0.3744866985200090  0.1652161144786461   F   F   F
  0.8170062524062309  0.8744844305411447  0.6653404807258905   T   T   T
  0.2729735254197331  0.8275573451384057  0.0400497437766070   T   T   T
  0.2273308913268437  0.3277297944387385  0.5397963675621256   F   F   F
  0.2729692853946604  0.6724596919667903  0.0399989356640585   T   T   T
  0.2273308913268437  0.1722701745786850  0.5397963675621256   F   F   F
  0.7273292586548052  0.1722701745786850  0.9602013886875440   F   F   F
  0.7728530519978140  0.6723065851369128  0.4601411718105696   T   T   T
  0.7273292586548052  0.3277297944387385  0.9602013886875440   F   F   F
  0.7728322358475377  0.8276911060538872  0.4602140592429187   T   T   T
  0.1171937847886723  0.8278511394768079  0.0236259167673499   T   T   T
  0.3829047477362622  0.3279865594254545  0.5228270011711871   F   F   F
  0.1172077557461240  0.6722155111637893  0.0233261041575145   T   T   T
  0.3829047477362622  0.1720134095919690  0.5228270011711871   F   F   F
  0.8829055769485592  0.1720134095919690  0.9771707550784754   F   F   F
  0.6171500900478475  0.6721329942292800  0.4767828902333274   T   T   T
  0.8829055769485592  0.3279865594254545  0.9771707550784754   F   F   F
  0.6171203550836662  0.8278844986422199  0.4767342951895310   T   T   T
  0.0684454840412326  0.8806187261791857  0.8159516576067897   T   T   T
  0.4316421794227736  0.3805307449230426  0.3150521046809729   F   F   F
  0.0684854287251896  0.6193989762063097  0.8156411800786812   T   T   T
  0.4316421794227736  0.1194692240943809  0.3150521046809729   F   F   F
  0.9316410391276122  0.1194692240943809  0.1849473966951294   F   F   F
  0.5685324717866604  0.6194453791986735  0.6846423324015319   T   T   T
  0.9316410391276122  0.3805307449230426  0.1849473966951294   F   F   F
  0.5684481727852563  0.8804999172456704  0.6846679394633661   T   T   T
  0.1946640938176469  0.8280989587641420  0.7035987735273871   T   T   T
  0.3049811849512878  0.3281471634073441  0.2034828209627761   F   F   F
  0.1948501314955896  0.6719264601444135  0.7034662149090841   T   T   T
  0.3049811849512878  0.1718528056100794  0.2034828209627761   F   F   F
  0.8049820141635848  0.1718528056100794  0.2965174282919705   F   F   F
  0.6950925957260415  0.6719582155496030  0.7966454329968155   T   T   T
  0.8049820141635848  0.3281471634073441  0.2965174282919705   F   F   F
  0.6950520662560343  0.8281475131617304  0.7967442789403867   T   T   T
  0.3050918758326356  0.7502622429105210  0.4172462499998977   T   T   T
  0.3942956757533149  0.7273145038551500  0.3066960438804781   T   T   T
  0.3965162796275220  0.7666867973808723  0.3085098259396372   T   T   T
 
  0.00000000E+00  0.00000000E+00  0.00000000E+00
  0.00000000E+00  0.00000000E+00  0.00000000E+00
  0.00000000E+00  0.00000000E+00  0.00000000E+00
  0.00000000E+00  0.00000000E+00  0.00000000E+00
  0.00000000E+00  0.00000000E+00  0.00000000E+00
  0.00000000E+00  0.00000000E+00  0.00000000E+00
  0.00000000E+00  0.00000000E+00  0.00000000E+00
  0.00000000E+00  0.00000000E+00  0.00000000E+00
  0.00000000E+00  0.00000000E+00  0.00000000E+00
  0.00000000E+00  0.00000000E+00  0.00000000E+00
  0.00000000E+00  0.00000000E+00  0.00000000E+00
  0.00000000E+00  0.00000000E+00  0.00000000E+00
  0.00000000E+00  0.00000000E+00  0.00000000E+00
  0.00000000E+00  0.00000000E+00  0.00000000E+00
  0.00000000E+00  0.00000000E+00  0.00000000E+00
  0.00000000E+00  0.00000000E+00  0.00000000E+00
  0.00000000E+00  0.00000000E+00  0.00000000E+00
  0.00000000E+00  0.00000000E+00  0.00000000E+00
  0.00000000E+00  0.00000000E+00  0.00000000E+00
  0.00000000E+00  0.00000000E+00  0.00000000E+00
  0.00000000E+00  0.00000000E+00  0.00000000E+00
  0.00000000E+00  0.00000000E+00  0.00000000E+00
  0.00000000E+00  0.00000000E+00  0.00000000E+00
  0.00000000E+00  0.00000000E+00  0.00000000E+00
  0.00000000E+00  0.00000000E+00  0.00000000E+00
  0.00000000E+00  0.00000000E+00  0.00000000E+00
  0.00000000E+00  0.00000000E+00  0.00000000E+00
  0.00000000E+00  0.00000000E+00  0.00000000E+00
  0.00000000E+00  0.00000000E+00  0.00000000E+00
  0.00000000E+00  0.00000000E+00  0.00000000E+00
  0.00000000E+00  0.00000000E+00  0.00000000E+00
  0.00000000E+00  0.00000000E+00  0.00000000E+00
  0.00000000E+00  0.00000000E+00  0.00000000E+00
  0.00000000E+00  0.00000000E+00  0.00000000E+00
  0.00000000E+00  0.00000000E+00  0.00000000E+00
  0.00000000E+00  0.00000000E+00  0.00000000E+00
  0.00000000E+00  0.00000000E+00  0.00000000E+00
  0.00000000E+00  0.00000000E+00  0.00000000E+00
  0.00000000E+00  0.00000000E+00  0.00000000E+00
  0.00000000E+00  0.00000000E+00  0.00000000E+00
  0.00000000E+00  0.00000000E+00  0.00000000E+00
  0.00000000E+00  0.00000000E+00  0.00000000E+00
  0.00000000E+00  0.00000000E+00  0.00000000E+00
  0.00000000E+00  0.00000000E+00  0.00000000E+00
  0.00000000E+00  0.00000000E+00  0.00000000E+00
  0.00000000E+00  0.00000000E+00  0.00000000E+00
  0.00000000E+00  0.00000000E+00  0.00000000E+00
  0.00000000E+00  0.00000000E+00  0.00000000E+00
  0.00000000E+00  0.00000000E+00  0.00000000E+00
  0.00000000E+00  0.00000000E+00  0.00000000E+00
  0.00000000E+00  0.00000000E+00  0.00000000E+00
  0.00000000E+00  0.00000000E+00  0.00000000E+00
  0.00000000E+00  0.00000000E+00  0.00000000E+00
  0.00000000E+00  0.00000000E+00  0.00000000E+00
  0.00000000E+00  0.00000000E+00  0.00000000E+00
  0.00000000E+00  0.00000000E+00  0.00000000E+00
  0.00000000E+00  0.00000000E+00  0.00000000E+00
  0.00000000E+00  0.00000000E+00  0.00000000E+00
  0.00000000E+00  0.00000000E+00  0.00000000E+00
  0.00000000E+00  0.00000000E+00  0.00000000E+00
  0.00000000E+00  0.00000000E+00  0.00000000E+00
  0.00000000E+00  0.00000000E+00  0.00000000E+00
  0.00000000E+00  0.00000000E+00  0.00000000E+00
  0.00000000E+00  0.00000000E+00  0.00000000E+00
  0.00000000E+00  0.00000000E+00  0.00000000E+00
  0.00000000E+00  0.00000000E+00  0.00000000E+00
  0.00000000E+00  0.00000000E+00  0.00000000E+00
  0.00000000E+00  0.00000000E+00  0.00000000E+00
  0.00000000E+00  0.00000000E+00  0.00000000E+00
  0.00000000E+00  0.00000000E+00  0.00000000E+00
  0.00000000E+00  0.00000000E+00  0.00000000E+00
  0.00000000E+00  0.00000000E+00  0.00000000E+00
  0.00000000E+00  0.00000000E+00  0.00000000E+00
  0.00000000E+00  0.00000000E+00  0.00000000E+00
  0.00000000E+00  0.00000000E+00  0.00000000E+00
  0.00000000E+00  0.00000000E+00  0.00000000E+00
  0.00000000E+00  0.00000000E+00  0.00000000E+00
  0.00000000E+00  0.00000000E+00  0.00000000E+00
  0.00000000E+00  0.00000000E+00  0.00000000E+00
  0.00000000E+00  0.00000000E+00  0.00000000E+00
  0.00000000E+00  0.00000000E+00  0.00000000E+00
  0.00000000E+00  0.00000000E+00  0.00000000E+00
  0.00000000E+00  0.00000000E+00  0.00000000E+00
  0.00000000E+00  0.00000000E+00  0.00000000E+00
  0.00000000E+00  0.00000000E+00  0.00000000E+00
  0.00000000E+00  0.00000000E+00  0.00000000E+00
  0.00000000E+00  0.00000000E+00  0.00000000E+00
  0.00000000E+00  0.00000000E+00  0.00000000E+00
  0.00000000E+00  0.00000000E+00  0.00000000E+00
  0.00000000E+00  0.00000000E+00  0.00000000E+00
  0.00000000E+00  0.00000000E+00  0.00000000E+00
  0.00000000E+00  0.00000000E+00  0.00000000E+00
  0.00000000E+00  0.00000000E+00  0.00000000E+00
  0.00000000E+00  0.00000000E+00  0.00000000E+00
  0.00000000E+00  0.00000000E+00  0.00000000E+00
  0.00000000E+00  0.00000000E+00  0.00000000E+00
  0.00000000E+00  0.00000000E+00  0.00000000E+00
  0.00000000E+00  0.00000000E+00  0.00000000E+00
  0.00000000E+00  0.00000000E+00  0.00000000E+00
  0.00000000E+00  0.00000000E+00  0.00000000E+00
  0.00000000E+00  0.00000000E+00  0.00000000E+00
  0.00000000E+00  0.00000000E+00  0.00000000E+00
  0.00000000E+00  0.00000000E+00  0.00000000E+00
  0.00000000E+00  0.00000000E+00  0.00000000E+00
  0.00000000E+00  0.00000000E+00  0.00000000E+00
  0.00000000E+00  0.00000000E+00  0.00000000E+00
  0.00000000E+00  0.00000000E+00  0.00000000E+00
  0.00000000E+00  0.00000000E+00  0.00000000E+00
  0.00000000E+00  0.00000000E+00  0.00000000E+00
  0.00000000E+00  0.00000000E+00  0.00000000E+00
  0.00000000E+00  0.00000000E+00  0.00000000E+00
  0.00000000E+00  0.00000000E+00  0.00000000E+00
  0.00000000E+00  0.00000000E+00  0.00000000E+00
  0.00000000E+00  0.00000000E+00  0.00000000E+00
  0.00000000E+00  0.00000000E+00  0.00000000E+00
  0.00000000E+00  0.00000000E+00  0.00000000E+00
  0.00000000E+00  0.00000000E+00  0.00000000E+00
  0.00000000E+00  0.00000000E+00  0.00000000E+00
  0.00000000E+00  0.00000000E+00  0.00000000E+00
  0.00000000E+00  0.00000000E+00  0.00000000E+00
  0.00000000E+00  0.00000000E+00  0.00000000E+00
  0.00000000E+00  0.00000000E+00  0.00000000E+00
  0.00000000E+00  0.00000000E+00  0.00000000E+00
  0.00000000E+00  0.00000000E+00  0.00000000E+00
  0.00000000E+00  0.00000000E+00  0.00000000E+00
  0.00000000E+00  0.00000000E+00  0.00000000E+00
  0.00000000E+00  0.00000000E+00  0.00000000E+00
  0.00000000E+00  0.00000000E+00  0.00000000E+00
  0.00000000E+00  0.00000000E+00  0.00000000E+00
  0.00000000E+00  0.00000000E+00  0.00000000E+00
  0.00000000E+00  0.00000000E+00  0.00000000E+00
  0.00000000E+00  0.00000000E+00  0.00000000E+00
  0.00000000E+00  0.00000000E+00  0.00000000E+00
  0.00000000E+00  0.00000000E+00  0.00000000E+00
  0.00000000E+00  0.00000000E+00  0.00000000E+00
  0.00000000E+00  0.00000000E+00  0.00000000E+00
  0.00000000E+00  0.00000000E+00  0.00000000E+00
  0.00000000E+00  0.00000000E+00  0.00000000E+00
  0.00000000E+00  0.00000000E+00  0.00000000E+00
  0.00000000E+00  0.00000000E+00  0.00000000E+00
  0.00000000E+00  0.00000000E+00  0.00000000E+00
  0.00000000E+00  0.00000000E+00  0.00000000E+00
  0.00000000E+00  0.00000000E+00  0.00000000E+00
  0.00000000E+00  0.00000000E+00  0.00000000E+00
  0.00000000E+00  0.00000000E+00  0.00000000E+00
  0.00000000E+00  0.00000000E+00  0.00000000E+00
  0.00000000E+00  0.00000000E+00  0.00000000E+00
  0.00000000E+00  0.00000000E+00  0.00000000E+00
  0.00000000E+00  0.00000000E+00  0.00000000E+00
  0.00000000E+00  0.00000000E+00  0.00000000E+00
  0.00000000E+00  0.00000000E+00  0.00000000E+00
  0.00000000E+00  0.00000000E+00  0.00000000E+00
  0.00000000E+00  0.00000000E+00  0.00000000E+00
  0.00000000E+00  0.00000000E+00  0.00000000E+00
  0.00000000E+00  0.00000000E+00  0.00000000E+00
  0.00000000E+00  0.00000000E+00  0.00000000E+00
  0.00000000E+00  0.00000000E+00  0.00000000E+00
  0.00000000E+00  0.00000000E+00  0.00000000E+00
  0.00000000E+00  0.00000000E+00  0.00000000E+00
  0.00000000E+00  0.00000000E+00  0.00000000E+00
  0.00000000E+00  0.00000000E+00  0.00000000E+00
  0.00000000E+00  0.00000000E+00  0.00000000E+00
  0.00000000E+00  0.00000000E+00  0.00000000E+00
  0.00000000E+00  0.00000000E+00  0.00000000E+00
  0.00000000E+00  0.00000000E+00  0.00000000E+00
  0.00000000E+00  0.00000000E+00  0.00000000E+00
  0.00000000E+00  0.00000000E+00  0.00000000E+00
  0.00000000E+00  0.00000000E+00  0.00000000E+00
  0.00000000E+00  0.00000000E+00  0.00000000E+00
  0.00000000E+00  0.00000000E+00  0.00000000E+00
  0.00000000E+00  0.00000000E+00  0.00000000E+00