 O Si Hf  H 
 1.0000000000000000
    20.3096463179830877    0.0000000000000000    0.0000000000000000
     0.0000000000000000   19.8625212307842212    0.0000000000000000
     0.0000000000000000    0.0000000000000000   13.3711533343531652
 O   Si  Hf  H  
 192  96   1   2
Selective dynamics
Cartesian
 10.2074441472539608  1.4455920571236711  9.4604249957828941   F   F   F
 20.2570253297206690 11.3768526725157813  2.7748483286063115   F   F   F
 10.2074441472539608  8.4856685582684399  9.4604249957828941   F   F   F
 20.2564976069727223 18.4160974583060693  2.7768617269366906   F   F   F
 10.1016503807453226 18.4155136344807886  3.9111524846206800   F   F   F
  0.0526209882624183  8.4856685582684399 10.5963050057468546   F   F   F
 10.1022021707291270 11.3768526725157813  3.9107283385702711   F   F   F
  0.0526209882624183  1.4455920571236711 10.5963050057468546   F   F   F
  7.8574470561008258  1.3782397496433998 10.6412964171056164   F   F   F
  2.2973761028907185 11.3095003650355110  3.9557197499290346   F   F   F
  7.8574470561008258  8.5530208657487101 10.6412964171056164   F   F   F
  2.2940680773241700 18.4889195619435327  3.9616583529638945   F   F   F
 12.4500305865396150 18.4862033365724834  2.7272349711643771   F   F   F
 18.0122702150923679  8.5530208657487101  9.4154335844241306   F   F   F
 12.4521992618822619 11.3095003650355110  2.7298569172475480   F   F   F
 18.0122702150923679  1.3782397496433998  9.4154335844241306   F   F   F
  8.1725947172854614  2.7725725698066146  8.4232488031646700   F   F   F
  1.9806761399731225 12.7059699119562417  1.7415911405047599   F   F   F
  8.1725947172854614  7.1586880455854951  8.4232488031646700   F   F   F
  1.9846198919204554 17.0870622709417468  1.7491251004046069   F   F   F
 12.1368794102867241 17.0903899694393075  4.9449399472446975   F   F   F
 18.3274178762770035  7.1586880455854951 11.6334811983650788   F   F   F
 12.1374754040894093 12.7047325833964404  4.9450393605295160   F   F   F
 18.3274178762770035  2.7725725698066146 11.6334811983650788   F   F   F
  8.2153166660147221  0.1029381220613197  8.3269034275119509   F   F   F
  1.9395064929768218 10.0341987374534298  1.6413267603352724   F   F   F
  8.2153166660147221  9.8283224933307913  8.3269034275119509   F   F   F
  1.9396523127069587 19.7578603734385148  1.6408177461269802   F   F   F
 12.0944293727318346 19.7590474372328480  5.0442812339313381   F   F   F
 18.3701398250062660  9.8283224933307913 11.7298265740177978   F   F   F
 12.0943296519683656 10.0341987374534298  5.0442499068413102   F   F   F
 18.3701398250062660  0.1029381220613197 11.7298265740177978   F   F   F
  6.5887154352565247  0.7852118051446575 12.8897032740910973   F   F   F
  3.5661077237350187 10.7164724205367676  6.2041266069144205   F   F   F
  6.5887154352565247  9.1460488102474535 12.8897032740910973   F   F   F
  3.5666914168417927 19.0769666463770733  6.2041849248312984   F   F   F
 13.7230584362628427 19.0771888834276915  0.4820482814726881   F   F   F
 16.7435385942480686  9.1460488102474535  7.1670267274386505   F   F   F
 13.7209308827265630 10.7164724205367676  0.4814500602620672   F   F   F
 16.7435385942480686  0.7852118051446575  7.1670267274386505   F   F   F
  6.5847892512306894 18.9444829694743291 10.8123924019427520   F   F   F
  3.5614151128380791  9.0137536510646292  4.1293696433153393   F   F   F
  6.5934080461534652 10.8487675797195919 10.8149463104919210   F   F   F
  3.5614151128380791  0.9175069643274809  4.1293696433153393   F   F   F
 13.7162382718296225  0.9175069643274809  2.5562070238612433   F   F   F
 16.7482312051450108 10.8487675797195919  9.2417836910378259   F   F   F
 13.7162382718296225  9.0137536510646292  2.5562070238612433   F   F   F
 16.7443824914562995 18.9453698504112502  9.2441021183655554   F   F   F
  5.1875978346380416  1.3228882597357992 10.7264487216491453   F   F   F
  4.9672253243535023 11.2541488751279086  4.0408720544725618   F   F   F
  5.1875978346380416  8.6083723556563125 10.7264487216491453   F   F   F
  4.9699766023195284 18.5425357734916965  4.0419240092916953   F   F   F
 15.1212960194548902 18.5385048359071654  2.6462204178484425   F   F   F
 15.3424209936295863  8.6083723556563125  9.3302812798806034   F   F   F
 15.1220484833450453 11.2541488751279086  2.6447046127040204   F   F   F
 15.3424209936295863  1.3228882597357992  9.3302812798806034   F   F   F
  5.9208478308271770  2.5261984263753923  1.3881965166552193   F   F   F
  4.2274368007988432 12.4585281456686054  8.0732059494073845   F   F   F
  5.9208478308271770  7.4050621890167188  1.3881965166552193   F   F   F
  4.2225786435334340 17.3371952095454276  8.0769149551820139   F   F   F
 14.3950776851336943 17.3375829363246083 11.9843209945973488   F   F   F
 16.0756709898187218  7.4050621890167188  5.2973801505213629   F   F   F
 14.3870942011575025 12.4561642157885739 11.9824909422011441   F   F   F
 16.0756709898187218  2.5261984263753923  5.2973801505213629   F   F   F
  4.0830782392452933  0.8506554447103878  0.3887956446629249   F   F   F
  6.0717449197462505 10.7819160601024979  7.0743723118395074   F   F   F
  4.0830782392452933  9.0806051706817232  0.3887956446629249   F   F   F
  6.0709403924395993 19.0100572493479767  7.0800660444584427   F   F   F
 16.2273363542647431 19.0169194163579967 12.9849695615266238   F   F   F
 14.2379013982368381  9.0806051706817232  6.2967810225136578   F   F   F
 16.2265680787377953 10.7819160601024979 12.9823576896902395   F   F   F
 14.2379013982368381  0.8506554447103878  6.2967810225136578   F   F   F
  6.0297217424147993 19.8199434320233259  1.9659273269971054   F   F   F
  4.1251014165767446  9.8886828166312153  8.6515039941735932   F   F   F
  6.0297217424147993  9.9738384141530059  1.9659273269971054   F   F   F
  4.1251014165767446  0.0425777987608954  8.6515039941735932   F   F   F
 14.2799245755682875  0.0425777987608954 11.4052260073561555   F   F   F
 16.1845449014063441  9.9738384141530059  4.7196493401794779   F   F   F
 14.2799245755682875  9.8886828166312153 11.4052260073561555   F   F   F
 16.1845449014063441 19.8199434320233259  4.7196493401794779   F   F   F
  2.2136347901559494  2.5175005587295871  1.2818583479620820   F   F   F
  7.9413319575366677 12.4480945382637476  7.9691115592473443   F   F   F
  2.2136347901559494  7.4137600566625226  1.2818583479620820   F   F   F
  7.9449654779402357 17.3451202927578159  7.9650912771968674   F   F   F
 18.0915826255077938 17.3457346059440347 12.0923292622989322   F   F   F
 12.3684579491474924  7.4137600566625226  5.4037183192145006   F   F   F
 18.0952652928626954 12.4496219244308932 12.0915861972401721   F   F   F
 12.3684579491474924  2.5175005587295871  5.4037183192145006   F   F   F
  1.6881962070130982  0.9207382679108781 12.6129474627524694   F   F   F
  8.4666269519784461 10.8519988833029899  5.9273707955758868   F   F   F
  1.6881962070130982  9.0105223474812313 12.6129474627524694   F   F   F
  8.4629877599544194 18.9433244601010280  5.9234199020305960   F   F   F
 18.6228808037841489 18.9404326005491122  0.7591141711670162   F   F   F
 11.8430193660046434  9.0105223474812313  7.4437825387772794   F   F   F
 18.6214501109699881 10.8519988833029899  0.7582058716006961   F   F   F
 11.8430193660046434  0.9207382679108781  7.4437825387772794   F   F   F
  2.6191221466297452  1.5772552032846385 10.2029786362431807   F   F   F
  7.5357010123617982 11.5085158186767487  3.5174019690665985   F   F   F
  2.6191221466297452  8.3540054121074725 10.2029786362431807   F   F   F
  7.5404580543275079 18.2893029364629491  3.5046619667095902   F   F   F
 17.6908950989334741 18.2855648440450409  3.1686196636191846   F   F   F
 12.7739453056212895  8.3540054121074725  9.8537513652865663   F   F   F
 17.6905241713533421 11.5085158186767487  3.1681746981099845   F   F   F
 12.7739453056212895  1.5772552032846385  9.8537513652865663   F   F   F
  1.4984740388532913 19.0731136816702218 10.5761988819465529   F   F   F
  8.6605141216446260  9.1427877065086367  3.8893856967007774   F   F   F
  1.4943090373469170 10.7197335242755862 10.5749623638772636   F   F   F
  8.6605141216446260  0.7884729088834742  3.8893856967007774   F   F   F
 18.8153372806361716  0.7884729088834742  2.7961909704758057   F   F   F
 11.6491321963384618 10.7197335242755862  9.4817676376524833   F   F   F
 18.8153372806361716  9.1427877065086367  2.7961909704758057   F   F   F
 11.6511151673052513 19.0741517499625353  9.4803274359966121   F   F   F
  4.3968316384186590  2.7045309019182375  8.6446672192582152   F   F   F
  5.7541857066713380 12.6254154762596933  1.9483242176755058   F   F   F
  4.3968316384186590  7.2267297134738726  8.6446672192582152   F   F   F
  5.7475135721615942 17.1640870149892386  1.9519050460814520   F   F   F
 15.9168576242519482 17.1566460460908381  4.7259264919171811   F   F   F
 14.5516547974102028  7.2267297134738726 11.4120627822715335   F   F   F
 15.9144248956214724 12.6364127564006150  4.7259931372858679   F   F   F
 14.5516547974102028  2.7045309019182375 11.4120627822715335   F   F   F
 10.0743344315994516 16.9458885448997947  9.5450033551683422   F   F   F
  0.0850379718339152  7.0141658028945288  2.8615498313442469   F   F   F
 10.0723611782299685 12.8484722938455587  9.5441583051627337   F   F   F
  0.0850379718339152  2.9170948124975822  2.8615498313442469   F   F   F
 10.2398611308254601  2.9170948124975822  3.8240268358323357   F   F   F
 20.2235313937195791 12.8472315533067647 10.5133312953501186   F   F   F
 10.2398611308254601  7.0141658028945288  3.8240268358323357   F   F   F
 20.2240006736065645 16.9482784975582312 10.5178522199185220   F   F   F
  7.6770498355355690 16.5534794587053398 10.5061299918102087   F   F   F
  2.4846705705810739  6.6155995192168131  3.8215753922960478   F   F   F
  7.6751675740352807 13.2453880507919202 10.5074133899316369   F   F   F
  2.4846705705810739  3.3156610961752970  3.8215753922960478   F   F   F
 12.6394937295726173  3.3156610961752970  2.8640012748805352   F   F   F
 17.8264541405446337 13.2457358567379995  9.5514998010838799   F   F   F
 12.6394937295726173  6.6155995192168131  2.8640012748805352   F   F   F
 17.8302068283467889 16.5516817413978217  9.5496111270600643   F   F   F
  8.6165395251757619 14.8977018009378011  8.6507281550228186   F   F   F
  1.5419329197154532  4.9656303076960553  1.9688022888379906   F   F   F
 11.6967560787069971  4.9656303076960553  4.7167743783385925   F   F   F
 18.7649958149462925 14.8981024559304274 11.4049045945578360   F   F   F
  6.4469009416588090 17.1743547956699878 12.7715377712426310   F   F   F
  3.7059346158871325  7.2425982351504699  6.0879969914885113   F   F   F
  6.4450487363883724 12.6201543687755038 12.7704442727805461   F   F   F
  3.7059346158871325  2.6886623802416403  6.0879969914885113   F   F   F
 13.8607577748786781  2.6886623802416403  0.5975796756880712   F   F   F
 16.6024371731037377 12.6180845509569277  7.2845506945636940   F   F   F
 13.8607577748786781  7.2425982351504699  0.5975796756880712   F   F   F
 16.6019909481931975 17.1765430948472009  7.2843830732696997   F   F   F
  5.0343256036007542 16.8044218812683006 10.5669399545784319   F   F   F
  5.1270102565117828  6.8928686523636049  3.8857134349154596   F   F   F
  5.0345451660549578 12.9807997701986881 10.5620491661224829   F   F   F
  5.1270102565117828  3.0383919630285057  3.8857134349154596   F   F   F
 15.2818334155033284  3.0383919630285057  2.7998632322611234   F   F   F
 15.1837947137533344 12.9725136559895482  9.4880122948905203   F   F   F
 15.2818334155033284  6.8928686523636049  2.7998632322611234   F   F   F
 15.1873755566193651 16.8162982311714799  9.4892494028540515   F   F   F
  5.9995892469833914 14.8969805201539902  0.6712652646618112   F   F   F
  4.1584246617385503  4.9656303076960553  7.3574447498228954   F   F   F
 14.3132478207300924  4.9656303076960553 12.6992852517067583   F   F   F
 16.1609054798014498 14.8967986628696689  6.0167181978105040   F   F   F
  3.9781204475350247 16.5334165744442210  0.0820923450434754   F   F   F
  6.1734543920290044  6.6085914233823377  6.7692293982920377   F   F   F
  3.9786595059367142 13.2599601535994402  0.0851133277103725   F   F   F
  6.1734543920290044  3.3226691920097720  6.7692293982920377   F   F   F
 16.3282775510205482  3.3226691920097720 13.2875006032377101   F   F   F
 14.1377157504977404 13.2611350003954716  6.5971369424188584   F   F   F
 16.3282775510205482  6.6085914233823377 13.2875006032377101   F   F   F
 14.1376849568287000 16.5338631221132459  6.5950549727975627   F   F   F
  1.8822021367551152 14.8978329271354948  0.2710770368454479   F   F   F
  8.2628481081252829  4.9656303076960553  6.9524502333987286   F   F   F
 18.4176712671168268  4.9656303076960553 13.1042797681310184   F   F   F
 12.0424570520300502 14.8968345729249716  6.4151801927574761   F   F   F
  1.6376996504449510 17.2799341084118332 12.5054015821861935   F   F   F
  8.5131568979229311  7.3415004446393679  5.8058209428476975   F   F   F
  1.6410644294451209 12.5179223200514560 12.4980265247871110   F   F   F
  8.5131568979229311  2.5897601707527422  5.8058209428476975   F   F   F
 18.6679800569143310  2.5897601707527422  0.8797557243288845   F   F   F
 11.8004628742834186 12.5201366448800950  7.5616484522382406   F   F   F
 18.6679800569143310  7.3415004446393679  0.8797557243288845   F   F   F
 11.8025673346759081 17.2714986926339975  7.5641318750320137   F   F   F
  2.4639611941430646 16.6748701694171721 10.0120595609798873   F   F   F
  7.6891086568283837  6.7513042184734262  3.3094339217652693   F   F   F
  2.4633394653366247 13.1136904382943893 10.0025073301484948   F   F   F
  7.6891086568283837  3.1799563969186848  3.3094339217652693   F   F   F
 17.8439318158197828  3.1799563969186848  3.3761427454113133   F   F   F
 12.6203074741729857 13.1114180619996912 10.0600898898330691   F   F   F
 17.8439318158197828  6.7513042184734262  3.3761427454113133   F   F   F
 12.6241280296600298 16.6851419413135957 10.0638328885395261   F   F   F
  4.1130931460876292 14.8964056866789196  8.9477123917689436   F   F   F
  6.0281749005281000  4.9656303076960553  2.2907179157230457   F   F   F
 16.1829980595196439  4.9656303076960553  4.3948587514535369   F   F   F
 14.2772939165857764 14.8961103601587066 11.0879155129934155   F   F   F
  8.6114921007489755  1.4146856099378582  9.1990931219956522   F   F   F
  1.5433310582425686 11.3459462253299677  2.5135164548190696   F   F   F
  8.6114921007489755  8.5165750054542517  9.1990931219956522   F   F   F
  1.5431100537612890 18.4488774902980772  2.5184592804071086   F   F   F
 11.6970716101739605 18.4487225390513672  4.1699752464794777   F   F   F
 18.7663152597405194  8.5165750054542517 10.8576368795340965   F   F   F
 11.6981542172341122 11.3459462253299677  4.1720602123575130   F   F   F
 18.7663152597405194  1.4146856099378582 10.8576368795340965   F   F   F
  6.5543253377466240  0.6425666935286518 11.2753241723876716   F   F   F
  3.6004978212449203 10.5738273089207624  4.5897475052110890   F   F   F
  6.5543253377466240  9.2886939218634588 11.2753241723876716   F   F   F
  3.6018537756295466 19.2207357363699032  4.5899244884608423   F   F   F
 13.7555537143225877 19.2204906337650137  2.0962995408725273   F   F   F
 16.7091484967381696  9.2886939218634588  8.7814058291420753   F   F   F
 13.7553209802364638 10.5738273089207624  2.0958291619654932   F   F   F
 16.7091484967381696  0.6425666935286518  8.7814058291420753   F   F   F
  5.6448362218964876  1.0320241432667694  0.8173882092636284   F   F   F
  4.5099869370950563 10.9632847586588795  7.5029648764402106   F   F   F
  5.6448362218964876  8.8992364721253416  0.8173882092636284   F   F   F
  4.5085305945318455 18.8316181382365215  7.5032152891327888   F   F   F
 14.6669430826345035 18.8326814674798690 12.5543579153029565   F   F   F
 15.7996593808880306  8.8992364721253416  5.8681884579129546   F   F   F
 14.6648100960866010 10.9632847586588795 12.5537651250895372   F   F   F
 15.7996593808880306  1.0320241432667694  5.8681884579129546   F   F   F
  2.4881439176978279  1.0483023193839807  0.6417355337127613   F   F   F
  7.6666792412937159 10.9795629347759487  7.3273122008893434   F   F   F
  2.4881439176978279  8.8829582960081304  0.6417355337127613   F   F   F
  7.6670081946002453 18.8139793611399071  7.3245566697778974   F   F   F
 17.8208644968887171 18.8158320523919294 12.7314912884152527   F   F   F
 12.6429670766893718  8.8829582960081304  6.0438411334638209   F   F   F
 17.8215024002852616 10.9795629347759487 12.7294178006404035   F   F   F
 12.6429670766893718  1.0483023193839807  6.0438411334638209   F   F   F
  1.4669611892426841  0.7765305914257938 11.0116839679886329   F   F   F
  8.6878619697488606 10.7077912068179053  4.3261073008120503   F   F   F
  1.4669611892426841  9.1547300239663159 11.0116839679886329   F   F   F
  8.6873404004362804 19.0852889075173877  4.3225898973485739   F   F   F
 18.8431027871028007 19.0855970772467138  2.3602062616519333   F   F   F
 11.6217843482342271  9.1547300239663159  9.0450460335411140   F   F   F
 18.8426851287404027 10.7077912068179053  2.3594693663645319   F   F   F
 11.6217843482342271  0.7765305914257938  9.0450460335411140   F   F   F
  4.0843573639185831  1.3979692287630687  9.5406986308418436   F   F   F
  6.0704657950729608 11.3292298441551793  2.8551219636652609   F   F   F
  4.0843573639185831  8.5332913866290419  9.5406986308418436   F   F   F
  6.0709943572038156 18.4627884905748445  2.8539542958914210   F   F   F
 16.2261654636118600 18.4641892445967031  3.8308781809957413   F   F   F
 14.2391805229101269  8.5332913866290419 10.5160313706879034   F   F   F
 16.2252889540645029 11.3292298441551793  3.8304547035113221   F   F   F
 14.2391805229101269  1.3979692287630687 10.5160313706879034   F   F   F
  8.5831369922245706 16.4417401734630459  9.1592063966728361   F   F   F
  1.5763273773718030  6.5092533948319806  2.4761345411157811   F   F   F
  8.5813032772568310 13.3542610761451854  9.1603828128824230   F   F   F
  1.5763273773718030  3.4220072205601295  2.4761345411157811   F   F   F
 11.7311505363633461  3.4220072205601295  4.2094421260608010   F   F   F
 18.7325414439269089 13.3544281573141905 10.8985099431406791   F   F   F
 11.7311505363633461  6.5092533948319806  4.2094421260608010   F   F   F
 18.7317358460054315 16.4422839938950176 10.8994547728996860   F   F   F
  6.4379980293824692 17.3679902827267156 11.1604112828468800   F   F   F
  3.7180465794847750  7.4382500466046224  4.4764479790710539   F   F   F
  6.4385931807504075 12.4249423962075767 11.1601936208829589   F   F   F
  3.7180465794847750  2.4930105687874886  4.4764479790710539   F   F   F
 13.8728697384763198  2.4930105687874886  2.2091286881055288   F   F   F
 16.5917477643977413 12.4246761664587542  8.8964524635395605   F   F   F
 13.8728697384763198  7.4382500466046224  2.2091286881055288   F   F   F
 16.5922751980214471 17.3692631523169965  8.8959168447293866   F   F   F
  5.5357011487203707 16.4395039609387901  0.5294083796005266   F   F   F
  4.6170079927443011  6.5095434530137322  7.2176998349999728   F   F   F
  5.5367966405691407 13.3539032999990095  0.5303801882052422   F   F   F
  4.6170079927443011  3.4217171623783784  7.2176998349999728   F   F   F
 14.7718311517358440  3.4217171623783784 12.8390301665297759   F   F   F
 15.6961523568831183 13.3537605623992892  6.1528665393390556   F   F   F
 14.7718311517358440  6.5095434530137322 12.8390301665297759   F   F   F
 15.6965575833863991 16.4396170167622451  6.1525990567093549   F   F   F
  2.3756245762947175 16.4449220850684910  0.3151331246037374   F   F   F
  7.7766577971384301  6.5146392987053847  6.9908051240805120   F   F   F
  2.3758057197335569 13.3506841860110743  0.3109482960982541   F   F   F
  7.7766577971384301  3.4166213166867263  6.9908051240805120   F   F   F
 17.9314809561299739  3.4166213166867263 13.0659248774492358   F   F   F
 12.5340335199387756 13.3500556375613630  6.3756036164159910   F   F   F
 17.9314809561299739  6.5146392987053847 13.0659248774492358   F   F   F
 12.5337984139147824 16.4438614507451497  6.3753194632482941   F   F   F
  1.3862728436933911 17.4915676642908302 10.9110920202511004   F   F   F
  8.7665009375840501  7.5582981210348308  4.2126116944586931   F   F   F
  1.3856873521901789 12.3022797714543053 10.9051222969788153   F   F   F
  8.7665009375840501  2.3729624943572789  4.2126116944586931   F   F   F
 18.9213240965755958  2.3729624943572789  2.4729649727178891   F   F   F
 11.5449341801383891 12.3034315105089842  9.1546828348688027   F   F   F
 18.9213240965755958  7.5582981210348308  2.4729649727178891   F   F   F
 11.5477178848675823 17.4898179699551051  9.1566928851441993   F   F   F
  3.9535389914796242 16.4466906657991281  9.4098760388592222   F   F   F
  6.1940601493177123  6.5178291587723436  2.7207962266042216   F   F   F
  3.9543299270692276 13.3452954249643323  9.4073595798889258   F   F   F
  6.1940601493177123  3.4134314566197661  2.7207962266042216   F   F   F
 16.3488833083092580  3.4134314566197661  3.9647804405723610   F   F   F
 14.1136103123826846 13.3453466027466270 10.6518150135610057   F   F   F
 16.3488833083092580  6.5178291587723436  3.9647804405723610   F   F   F
 14.1177374198646177 16.4479529595680596 10.6544280729600747   F   F   F
  5.7833500796367510 14.9109012637510627  5.4911229774821244   F   F   F
  6.87436132  15.35804146   3.98954726                         T   T   T
  7.01924678  14.32184726   4.0927245                          T   T   T
