 O Si Re  H 
 1.0000000000000000
    20.3096463179830877    0.0000000000000000    0.0000000000000000
     0.0000000000000000   19.8625212307842212    0.0000000000000000
     0.0000000000000000    0.0000000000000000   13.3711533343531652
 O   Si  Re  H  
 192  96   1   2
Selective dynamics
Cartesian
 10.2074441472539608  1.4455920571236711  9.4604249957828941   F   F   F
 20.2570253297206690 11.3768526725157813  2.7748483286063115   F   F   F
 10.2074441472539608  8.4856685582684399  9.4604249957828941   F   F   F
 20.2564983205188582 18.4164748085702286  2.7764483616186499   F   F   F
 10.1003137369812404 18.4153990825675820  3.9107981400899567   F   F   F
  0.0526209882624183  8.4856685582684399 10.5963050057468546   F   F   F
 10.1022021707291270 11.3768526725157813  3.9107283385702711   F   F   F
  0.0526209882624183  1.4455920571236711 10.5963050057468546   F   F   F
  7.8574470561008258  1.3782397496433998 10.6412964171056164   F   F   F
  2.2973761028907185 11.3095003650355110  3.9557197499290346   F   F   F
  7.8574470561008258  8.5530208657487101 10.6412964171056164   F   F   F
  2.2951910354952689 18.4883362766915020  3.9604099571619931   F   F   F
 12.4486210617882254 18.4882016543857830  2.7262781809392416   F   F   F
 18.0122702150923679  8.5530208657487101  9.4154335844241306   F   F   F
 12.4521992618822619 11.3095003650355110  2.7298569172475480   F   F   F
 18.0122702150923679  1.3782397496433998  9.4154335844241306   F   F   F
  8.1725947172854614  2.7725725698066146  8.4232488031646700   F   F   F
  1.9844047210904712 12.7077856353533551  1.7458524355709364   F   F   F
  8.1725947172854614  7.1586880455854951  8.4232488031646700   F   F   F
  1.9850495366699055 17.0862837399829210  1.7489022605721809   F   F   F
 12.1372432923517977 17.0883473850287118  4.9403672598820521   F   F   F
 18.3274178762770035  7.1586880455854951 11.6334811983650788   F   F   F
 12.1382011947096853 12.7061122865863947  4.9433197116321512   F   F   F
 18.3274178762770035  2.7725725698066146 11.6334811983650788   F   F   F
  8.2153166660147221  0.1029381220613197  8.3269034275119509   F   F   F
  1.9395064929768218 10.0341987374534298  1.6413267603352724   F   F   F
  8.2153166660147221  9.8283224933307913  8.3269034275119509   F   F   F
  1.9400709212516292 19.7571556937084907  1.6401855559183180   F   F   F
 12.0942440364826069 19.7582999430621058  5.0450203898552957   F   F   F
 18.3701398250062660  9.8283224933307913 11.7298265740177978   F   F   F
 12.0943296519683656 10.0341987374534298  5.0442499068413102   F   F   F
 18.3701398250062660  0.1029381220613197 11.7298265740177978   F   F   F
  6.5887154352565247  0.7852118051446575 12.8897032740910973   F   F   F
  3.5661077237350187 10.7164724205367676  6.2041266069144205   F   F   F
  6.5887154352565247  9.1460488102474535 12.8897032740910973   F   F   F
  3.5693518904464434 19.0804645640988433  6.2050869641669983   F   F   F
 13.7223142289821975 19.0786155484883402  0.4814001758761987   F   F   F
 16.7435385942480686  9.1460488102474535  7.1670267274386505   F   F   F
 13.7209308827265630 10.7164724205367676  0.4814500602620672   F   F   F
 16.7435385942480686  0.7852118051446575  7.1670267274386505   F   F   F
  6.5895436059653401 18.9450593974890964 10.8137068293026974   F   F   F
  3.5614151128380791  9.0137536510646292  4.1293696433153393   F   F   F
  6.5934080461534652 10.8487675797195919 10.8149463104919210   F   F   F
  3.5614151128380791  0.9175069643274809  4.1293696433153393   F   F   F
 13.7162382718296225  0.9175069643274809  2.5562070238612433   F   F   F
 16.7482312051450108 10.8487675797195919  9.2417836910378259   F   F   F
 13.7162382718296225  9.0137536510646292  2.5562070238612433   F   F   F
 16.7455451334531062 18.9459347518712420  9.2437970161488625   F   F   F
  5.1875978346380416  1.3228882597357992 10.7264487216491453   F   F   F
  4.9672253243535023 11.2541488751279086  4.0408720544725618   F   F   F
  5.1875978346380416  8.6083723556563125 10.7264487216491453   F   F   F
  4.9674823321919321 18.5398472620092463  4.0405274151254762   F   F   F
 15.1204443025817206 18.5385019835692830  2.6461632338118259   F   F   F
 15.3424209936295863  8.6083723556563125  9.3302812798806034   F   F   F
 15.1220484833450453 11.2541488751279086  2.6447046127040204   F   F   F
 15.3424209936295863  1.3228882597357992  9.3302812798806034   F   F   F
  5.9208478308271770  2.5261984263753923  1.3881965166552193   F   F   F
  4.2270848736701812 12.4544123351442586  8.0787184602819782   F   F   F
  5.9208478308271770  7.4050621890167188  1.3881965166552193   F   F   F
  4.2203027023394375 17.3376447283704138  8.0762861992688766   F   F   F
 14.3976947834564140 17.3388453506520470 11.9848104413789489   F   F   F
 16.0756709898187218  7.4050621890167188  5.2973801505213629   F   F   F
 14.3908537855989156 12.4577109913413402 11.9844099582461379   F   F   F
 16.0756709898187218  2.5261984263753923  5.2973801505213629   F   F   F
  4.0830782392452933  0.8506554447103878  0.3887956446629249   F   F   F
  6.0717449197462505 10.7819160601024979  7.0743723118395074   F   F   F
  4.0830782392452933  9.0806051706817232  0.3887956446629249   F   F   F
  6.0721836300780865 19.0049054167904075  7.0816665008459712   F   F   F
 16.2282807943227958 19.0199777874314293 12.9861393905604263   F   F   F
 14.2379013982368381  9.0806051706817232  6.2967810225136578   F   F   F
 16.2265680787377953 10.7819160601024979 12.9823576896902395   F   F   F
 14.2379013982368381  0.8506554447103878  6.2967810225136578   F   F   F
  6.0297217424147993 19.8199434320233259  1.9659273269971054   F   F   F
  4.1251014165767446  9.8886828166312153  8.6515039941735932   F   F   F
  6.0297217424147993  9.9738384141530059  1.9659273269971054   F   F   F
  4.1251014165767446  0.0425777987608954  8.6515039941735932   F   F   F
 14.2799245755682875  0.0425777987608954 11.4052260073561555   F   F   F
 16.1845449014063441  9.9738384141530059  4.7196493401794779   F   F   F
 14.2799245755682875  9.8886828166312153 11.4052260073561555   F   F   F
 16.1845449014063441 19.8199434320233259  4.7196493401794779   F   F   F
  2.2136347901559494  2.5175005587295871  1.2818583479620820   F   F   F
  7.9505836419321749 12.4442633766564779  7.9781411995970064   F   F   F
  2.2136347901559494  7.4137600566625226  1.2818583479620820   F   F   F
  7.9555357533580411 17.3463816141163356  7.9702978456685711   F   F   F
 18.0894872303933418 17.3452512690884610 12.0900466080398417   F   F   F
 12.3684579491474924  7.4137600566625226  5.4037183192145006   F   F   F
 18.0955916780464001 12.4479906445733306 12.0877050675152038   F   F   F
 12.3684579491474924  2.5175005587295871  5.4037183192145006   F   F   F
  1.6881962070130982  0.9207382679108781 12.6129474627524694   F   F   F
  8.4666269519784461 10.8519988833029899  5.9273707955758868   F   F   F
  1.6881962070130982  9.0105223474812313 12.6129474627524694   F   F   F
  8.4629252384200058 18.9430556451176386  5.9250274303886687   F   F   F
 18.6235552442470365 18.9399802640155919  0.7586569563898568   F   F   F
 11.8430193660046434  9.0105223474812313  7.4437825387772794   F   F   F
 18.6214501109699881 10.8519988833029899  0.7582058716006961   F   F   F
 11.8430193660046434  0.9207382679108781  7.4437825387772794   F   F   F
  2.6191221466297452  1.5772552032846385 10.2029786362431807   F   F   F
  7.5357010123617982 11.5085158186767487  3.5174019690665985   F   F   F
  2.6191221466297452  8.3540054121074725 10.2029786362431807   F   F   F
  7.5378337822411305 18.2853142056367908  3.5100076782406937   F   F   F
 17.6901836703102013 18.2854396556547627  3.1673261858444595   F   F   F
 12.7739453056212895  8.3540054121074725  9.8537513652865663   F   F   F
 17.6905241713533421 11.5085158186767487  3.1681746981099845   F   F   F
 12.7739453056212895  1.5772552032846385  9.8537513652865663   F   F   F
  1.4938848672127145 19.0736675451160878 10.5780516851027393   F   F   F
  8.6605141216446260  9.1427877065086367  3.8893856967007774   F   F   F
  1.4943090373469170 10.7197335242755862 10.5749623638772636   F   F   F
  8.6605141216446260  0.7884729088834742  3.8893856967007774   F   F   F
 18.8153372806361716  0.7884729088834742  2.7961909704758057   F   F   F
 11.6491321963384618 10.7197335242755862  9.4817676376524833   F   F   F
 18.8153372806361716  9.1427877065086367  2.7961909704758057   F   F   F
 11.6410703870560290 19.0728493123735454  9.4792906273285276   F   F   F
  4.3968316384186590  2.7045309019182375  8.6446672192582152   F   F   F
  5.7598025064367828 12.6384786354316851  1.9612507391169516   F   F   F
  4.3968316384186590  7.2267297134738726  8.6446672192582152   F   F   F
  5.7590657800449625 17.1544096272954043  1.9608693383433999   F   F   F
 15.9176092748884557 17.1561125841060651  4.7245708795451060   F   F   F
 14.5516547974102028  7.2267297134738726 11.4120627822715335   F   F   F
 15.9141676145014408 12.6368769205397697  4.7251868158517745   F   F   F
 14.5516547974102028  2.7045309019182375 11.4120627822715335   F   F   F
 10.0857303274234980 16.9221589706549231  9.5421850212693151   F   F   F
  0.0850379718339152  7.0141658028945288  2.8615498313442469   F   F   F
 10.0878239065850579 12.8622521038611453  9.5439331228125486   F   F   F
  0.0850379718339152  2.9170948124975822  2.8615498313442469   F   F   F
 10.2398611308254601  2.9170948124975822  3.8240268358323357   F   F   F
 20.2341827713491256 12.8551784699926728 10.5216913657147302   F   F   F
 10.2398611308254601  7.0141658028945288  3.8240268358323357   F   F   F
 20.2282417726351831 16.9436259305985324 10.5246244195174423   F   F   F
  7.6843173163190563 16.5556579491615423 10.5137743242042543   F   F   F
  2.4846705705810739  6.6155995192168131  3.8215753922960478   F   F   F
  7.6944336567430716 13.2348919132408049 10.5241616388828945   F   F   F
  2.4846705705810739  3.3156610961752970  3.8215753922960478   F   F   F
 12.6394937295726173  3.3156610961752970  2.8640012748805352   F   F   F
 17.8425772394640560 13.2387215155560192  9.5431752682494206   F   F   F
 12.6394937295726173  6.6155995192168131  2.8640012748805352   F   F   F
 17.8374262989826953 16.5540542608937713  9.5458386985624415   F   F   F
  8.5991671565694912 14.8930962944898369  8.6568797985184336   F   F   F
  1.5419329197154532  4.9656303076960553  1.9688022888379906   F   F   F
 11.6967560787069971  4.9656303076960553  4.7167743783385925   F   F   F
 18.7597066703917967 14.8968064088685832 11.4039245595109975   F   F   F
  6.4460234743591780 17.1757328735265773 12.7726829573588425   F   F   F
  3.7059346158871325  7.2425982351504699  6.0879969914885113   F   F   F
  6.4462757771905608 12.6143027540407839 12.7755763209945652   F   F   F
  3.7059346158871325  2.6886623802416403  6.0879969914885113   F   F   F
 13.8607577748786781  2.6886623802416403  0.5975796756880712   F   F   F
 16.6036950596092296 12.6165415313264742  7.2828951334704248   F   F   F
 13.8607577748786781  7.2425982351504699  0.5975796756880712   F   F   F
 16.6029958816042900 17.1778060074639640  7.2831935005330442   F   F   F
  5.0395074891604406 16.8109700752303510 10.5617278464104860   F   F   F
  5.1270102565117828  6.8928686523636049  3.8857134349154596   F   F   F
  5.0497667536889068 12.9900781301169435 10.5602513153199702   F   F   F
  5.1270102565117828  3.0383919630285057  3.8857134349154596   F   F   F
 15.2818334155033284  3.0383919630285057  2.7998632322611234   F   F   F
 15.1998158991521901 12.9835994251622733  9.4933064354599228   F   F   F
 15.2818334155033284  6.8928686523636049  2.7998632322611234   F   F   F
 15.1949445461814250 16.8135933760965877  9.4898653533597255   F   F   F
  6.0066666240315660 14.8965531938380487  0.6705835288734048   F   F   F
  4.1584246617385503  4.9656303076960553  7.3574447498228954   F   F   F
 14.3132478207300924  4.9656303076960553 12.6992852517067583   F   F   F
 16.1648600110290701 14.8969896223393619  6.0162901172823560   F   F   F
  3.9817325080654142 16.5313105127739668  0.0896488290652388   F   F   F
  6.1734543920290044  6.6085914233823377  6.7692293982920377   F   F   F
  3.9826999392816917 13.2626656238535894  0.0888331280966733   F   F   F
  6.1734543920290044  3.3226691920097720  6.7692293982920377   F   F   F
 16.3282775510205482  3.3226691920097720 13.2875006032377101   F   F   F
 14.1395423593097362 13.2647687315875054  6.5959725617054970   F   F   F
 16.3282775510205482  6.6085914233823377 13.2875006032377101   F   F   F
 14.1389571301111392 16.5300049557519628  6.5918049559710825   F   F   F
  1.8865209049797136 14.8970344513360473  0.2686246279650609   F   F   F
  8.2628481081252829  4.9656303076960553  6.9524502333987286   F   F   F
 18.4176712671168268  4.9656303076960553 13.1042797681310184   F   F   F
 12.0412243774164338 14.8976338501793162  6.4160255968790425   F   F   F
  1.6446664778777385 17.2811481302870824 12.5051263579840910   F   F   F
  8.5131568979229311  7.3415004446393679  5.8058209428476975   F   F   F
  1.6455951591650524 12.5115867531104303 12.5045782430132864   F   F   F
  8.5131568979229311  2.5897601707527422  5.8058209428476975   F   F   F
 18.6679800569143310  2.5897601707527422  0.8797557243288845   F   F   F
 11.8064039466647959 12.5161035903458657  7.5586681569490795   F   F   F
 18.6679800569143310  7.3415004446393679  0.8797557243288845   F   F   F
 11.8069427498097639 17.2774565967294080  7.5589625038961499   F   F   F
  2.4702558090516598 16.6834208474791090 10.0126139763441309   F   F   F
  7.6891086568283837  6.7513042184734262  3.3094339217652693   F   F   F
  2.4784559438740348 13.1085103740141289 10.0157735837383086   F   F   F
  7.6891086568283837  3.1799563969186848  3.3094339217652693   F   F   F
 17.8439318158197828  3.1799563969186848  3.3761427454113133   F   F   F
 12.6355049677194113 13.1083775217939298 10.0530374128289210   F   F   F
 17.8439318158197828  6.7513042184734262  3.3761427454113133   F   F   F
 12.6334540170423200 16.6897248902499484 10.0574070847538906   F   F   F
  4.1098465320866762 14.8970525386712112  8.9674303222479086   F   F   F
  6.0281749005281000  4.9656303076960553  2.2907179157230457   F   F   F
 16.1829980595196439  4.9656303076960553  4.3948587514535369   F   F   F
 14.2795662051489440 14.8989241768018310 11.0919199263710944   F   F   F
  8.6114921007489755  1.4146856099378582  9.1990931219956522   F   F   F
  1.5433310582425686 11.3459462253299677  2.5135164548190696   F   F   F
  8.6114921007489755  8.5165750054542517  9.1990931219956522   F   F   F
  1.5433157272882956 18.4481504656055790  2.5179230169950393   F   F   F
 11.6961727967715472 18.4489615632297337  4.1693891093262083   F   F   F
 18.7663152597405194  8.5165750054542517 10.8576368795340965   F   F   F
 11.6981542172341122 11.3459462253299677  4.1720602123575130   F   F   F
 18.7663152597405194  1.4146856099378582 10.8576368795340965   F   F   F
  6.5543253377466240  0.6425666935286518 11.2753241723876716   F   F   F
  3.6004978212449203 10.5738273089207624  4.5897475052110890   F   F   F
  6.5543253377466240  9.2886939218634588 11.2753241723876716   F   F   F
  3.6018721188706921 19.2205715813719706  4.5909821057441995   F   F   F
 13.7552696416848139 19.2209016774228267  2.0957430671554049   F   F   F
 16.7091484967381696  9.2886939218634588  8.7814058291420753   F   F   F
 13.7553209802364638 10.5738273089207624  2.0958291619654932   F   F   F
 16.7091484967381696  0.6425666935286518  8.7814058291420753   F   F   F
  5.6448362218964876  1.0320241432667694  0.8173882092636284   F   F   F
  4.5099869370950563 10.9632847586588795  7.5029648764402106   F   F   F
  5.6448362218964876  8.8992364721253416  0.8173882092636284   F   F   F
  4.5092242657666661 18.8291923744414298  7.5042821772710555   F   F   F
 14.6681979214433689 18.8338927342619158 12.5552044639411893   F   F   F
 15.7996593808880306  8.8992364721253416  5.8681884579129546   F   F   F
 14.6648100960866010 10.9632847586588795 12.5537651250895372   F   F   F
 15.7996593808880306  1.0320241432667694  5.8681884579129546   F   F   F
  2.4881439176978279  1.0483023193839807  0.6417355337127613   F   F   F
  7.6666792412937159 10.9795629347759487  7.3273122008893434   F   F   F
  2.4881439176978279  8.8829582960081304  0.6417355337127613   F   F   F
  7.6680725341114844 18.8125153529910030  7.3259066093048206   F   F   F
 17.8215715146312164 18.8154145134777870 12.7310967361503291   F   F   F
 12.6429670766893718  8.8829582960081304  6.0438411334638209   F   F   F
 17.8215024002852616 10.9795629347759487 12.7294178006404035   F   F   F
 12.6429670766893718  1.0483023193839807  6.0438411334638209   F   F   F
  1.4669611892426841  0.7765305914257938 11.0116839679886329   F   F   F
  8.6878619697488606 10.7077912068179053  4.3261073008120503   F   F   F
  1.4669611892426841  9.1547300239663159 11.0116839679886329   F   F   F
  8.6855252535519032 19.0844604931457660  4.3246957443894258   F   F   F
 18.8429413211759957 19.0855429422027392  2.3600048594102749   F   F   F
 11.6217843482342271  9.1547300239663159  9.0450460335411140   F   F   F
 18.8426851287404027 10.7077912068179053  2.3594693663645319   F   F   F
 11.6217843482342271  0.7765305914257938  9.0450460335411140   F   F   F
  4.0843573639185831  1.3979692287630687  9.5406986308418436   F   F   F
  6.0704657950729608 11.3292298441551793  2.8551219636652609   F   F   F
  4.0843573639185831  8.5332913866290419  9.5406986308418436   F   F   F
  6.0699032180345274 18.4632724358202545  2.8555175035700398   F   F   F
 16.2258372597318079 18.4644484364562977  3.8301797020206108   F   F   F
 14.2391805229101269  8.5332913866290419 10.5160313706879034   F   F   F
 16.2252889540645029 11.3292298441551793  3.8304547035113221   F   F   F
 14.2391805229101269  1.3979692287630687 10.5160313706879034   F   F   F
  8.5867135309901919 16.4393402596305869  9.1645130085021904   F   F   F
  1.5763273773718030  6.5092533948319806  2.4761345411157811   F   F   F
  8.5905927568593619 13.3497597506967818  9.1710106288513877   F   F   F
  1.5763273773718030  3.4220072205601295  2.4761345411157811   F   F   F
 11.7311505363633461  3.4220072205601295  4.2094421260608010   F   F   F
 18.7378076930376665 13.3530505734560982 10.8970531467730734   F   F   F
 11.7311505363633461  6.5092533948319806  4.2094421260608010   F   F   F
 18.7335148152671813 16.4410797228889223 10.8993265335009113   F   F   F
  6.4400783845447824 17.3695821446564977 11.1609194396880582   F   F   F
  3.7180465794847750  7.4382500466046224  4.4764479790710539   F   F   F
  6.4449881671694973 12.4236316759037138 11.1639745758297497   F   F   F
  3.7180465794847750  2.4930105687874886  4.4764479790710539   F   F   F
 13.8728697384763198  2.4930105687874886  2.2091286881055288   F   F   F
 16.5996665633645399 12.4244826523597531  8.8948249944345381   F   F   F
 13.8728697384763198  7.4382500466046224  2.2091286881055288   F   F   F
 16.5972291995927819 17.3703170735654346  8.8952146071258067   F   F   F
  5.5401109842590524 16.4392056982167105  0.5332610356588762   F   F   F
  4.6170079927443011  6.5095434530137322  7.2176998349999728   F   F   F
  5.5408635840334695 13.3538393783709477  0.5345095914223946   F   F   F
  4.6170079927443011  3.4217171623783784  7.2176998349999728   F   F   F
 14.7718311517358440  3.4217171623783784 12.8390301665297759   F   F   F
 15.6983491696247537 13.3548411317876212  6.1521264846568053   F   F   F
 14.7718311517358440  6.5095434530137322 12.8390301665297759   F   F   F
 15.6985705132495550 16.4394100380663453  6.1514277106847697   F   F   F
  2.3780358447276080 16.4443975290294091  0.3153726777885512   F   F   F
  7.7766577971384301  6.5146392987053847  6.9908051240805120   F   F   F
  2.3790537496342030 13.3501131399193955  0.3135217303515545   F   F   F
  7.7766577971384301  3.4166213166867263  6.9908051240805120   F   F   F
 17.9314809561299739  3.4166213166867263 13.0659248774492358   F   F   F
 12.5356094530952671 13.3517565921165318  6.3740389553595094   F   F   F
 17.9314809561299739  6.5146392987053847 13.0659248774492358   F   F   F
 12.5346082882807650 16.4442104202353150  6.3720348436740428   F   F   F
  1.3902239581467613 17.4919827409796689 10.9113950954613941   F   F   F
  8.7665009375840501  7.5582981210348308  4.2126116944586931   F   F   F
  1.3937853445153285 12.3018888684058325 10.9105937392709134   F   F   F
  8.7665009375840501  2.3729624943572789  4.2126116944586931   F   F   F
 18.9213240965755958  2.3729624943572789  2.4729649727178891   F   F   F
 11.5553045446961793 12.3035684375742829  9.1520553025816671   F   F   F
 18.9213240965755958  7.5582981210348308  2.4729649727178891   F   F   F
 11.5512274971815749 17.4881379830639148  9.1524060858185710   F   F   F
  3.9563675455024057 16.4497907159492414  9.4078932612045456   F   F   F
  6.1940601493177123  6.5178291587723436  2.7207962266042216   F   F   F
  3.9625300629229798 13.3453219485660828  9.4093694129917846   F   F   F
  6.1940601493177123  3.4134314566197661  2.7207962266042216   F   F   F
 16.3488833083092580  3.4134314566197661  3.9647804405723610   F   F   F
 14.1243317979880647 13.3484386832490998 10.6533663737057029   F   F   F
 16.3488833083092580  6.5178291587723436  3.9647804405723610   F   F   F
 14.1239377641564374 16.4498340353114862 10.6539923295276591   F   F   F
  6.4877361045233508 14.7425500502744882  5.7057879554841646   F   F   F
  7.2626930000000005 14.1578435 4.092553 T  T  T
  7.9536285 14.895805 4.4377455 T  T  T
