 O Si Ni  C  O  H 
 1.0000000000000000
    20.3096463179830877    0.0000000000000000    0.0000000000000000
     0.0000000000000000   19.8625212307842212    0.0000000000000000
     0.0000000000000000    0.0000000000000000   13.3711533343531652
 O   Si  Ni  C   O   H  
 192  96   1   1   2   1
Selective dynamics
Cartesian
 10.2074441472539608  1.4455920571236711  9.4604249957828941   F   F   F
 20.2570253297206690 11.3768526725157813  2.7748483286063115   F   F   F
 10.2074441472539608  8.4856685582684399  9.4604249957828941   F   F   F
 20.2517245329983950 18.4174909079660978  2.7834610469884722   F   F   F
 10.1006849980918609 18.4071698439514329  3.9292581503779198   F   F   F
  0.0526209882624183  8.4856685582684399 10.5963050057468546   F   F   F
 10.1022021707291270 11.3768526725157813  3.9107283385702711   F   F   F
  0.0526209882624183  1.4455920571236711 10.5963050057468546   F   F   F
  7.8574470561008258  1.3782397496433998 10.6412964171056164   F   F   F
  2.2973761028907185 11.3095003650355110  3.9557197499290346   F   F   F
  7.8574470561008258  8.5530208657487101 10.6412964171056164   F   F   F
  2.2908422650222340 18.4899365081671512  3.9594391201376853   F   F   F
 12.4397132940328401 18.4918971718974845  2.7195680117854142   F   F   F
 18.0122702150923679  8.5530208657487101  9.4154335844241306   F   F   F
 12.4521992618822619 11.3095003650355110  2.7298569172475480   F   F   F
 18.0122702150923679  1.3782397496433998  9.4154335844241306   F   F   F
  8.1725947172854614  2.7725725698066146  8.4232488031646700   F   F   F
  1.9792933649535844 12.7042733190694008  1.7374309918595912   F   F   F
  8.1725947172854614  7.1586880455854951  8.4232488031646700   F   F   F
  1.9704450883751132 17.0894131679030039  1.7447986070465038   F   F   F
 12.1877213478373871 17.1061161714379217  4.9423776349983797   F   F   F
 18.3274178762770035  7.1586880455854951 11.6334811983650788   F   F   F
 12.1882493591535610 12.6958201680500764  4.9482989353943720   F   F   F
 18.3274178762770035  2.7725725698066146 11.6334811983650788   F   F   F
  8.2153166660147221  0.1029381220613197  8.3269034275119509   F   F   F
  1.9395064929768218 10.0341987374534298  1.6413267603352724   F   F   F
  8.2153166660147221  9.8283224933307913  8.3269034275119509   F   F   F
  1.9336877833038975 19.7600320638764764  1.6405237464017242   F   F   F
 12.0955863002376738 19.7595275331237943  5.0442500857890886   F   F   F
 18.3701398250062660  9.8283224933307913 11.7298265740177978   F   F   F
 12.0943296519683656 10.0341987374534298  5.0442499068413102   F   F   F
 18.3701398250062660  0.1029381220613197 11.7298265740177978   F   F   F
  6.5887154352565247  0.7852118051446575 12.8897032740910973   F   F   F
  3.5661077237350187 10.7164724205367676  6.2041266069144205   F   F   F
  6.5887154352565247  9.1460488102474535 12.8897032740910973   F   F   F
  3.5623601299758652 19.0784567988399480  6.2050573825158093   F   F   F
 13.7185240674118774 19.0803852523192354  0.4775656162407443   F   F   F
 16.7435385942480686  9.1460488102474535  7.1670267274386505   F   F   F
 13.7209308827265630 10.7164724205367676  0.4814500602620672   F   F   F
 16.7435385942480686  0.7852118051446575  7.1670267274386505   F   F   F
  6.5873075491783792 18.9463163471650091 10.8125441007542129   F   F   F
  3.5614151128380791  9.0137536510646292  4.1293696433153393   F   F   F
  6.5934080461534652 10.8487675797195919 10.8149463104919210   F   F   F
  3.5614151128380791  0.9175069643274809  4.1293696433153393   F   F   F
 13.7162382718296225  0.9175069643274809  2.5562070238612433   F   F   F
 16.7482312051450108 10.8487675797195919  9.2417836910378259   F   F   F
 13.7162382718296225  9.0137536510646292  2.5562070238612433   F   F   F
 16.7427984553880300 18.9460890236214468  9.2451660240315672   F   F   F
  5.1875978346380416  1.3228882597357992 10.7264487216491453   F   F   F
  4.9672253243535023 11.2541488751279086  4.0408720544725618   F   F   F
  5.1875978346380416  8.6083723556563125 10.7264487216491453   F   F   F
  4.9614373373451128 18.5378511775993395  4.0388011004754016   F   F   F
 15.1119059305454844 18.5376830565421749  2.6446152002555858   F   F   F
 15.3424209936295863  8.6083723556563125  9.3302812798806034   F   F   F
 15.1220484833450453 11.2541488751279086  2.6447046127040204   F   F   F
 15.3424209936295863  1.3228882597357992  9.3302812798806034   F   F   F
  5.9208478308271770  2.5261984263753923  1.3881965166552193   F   F   F
  4.2252803992816830 12.4550051140858020  8.0742891822007632   F   F   F
  5.9208478308271770  7.4050621890167188  1.3881965166552193   F   F   F
  4.2282360393906115 17.3387878958651385  8.0749461356597596   F   F   F
 14.4075881719423418 17.3376897483985921 11.9907302978627968   F   F   F
 16.0756709898187218  7.4050621890167188  5.2973801505213629   F   F   F
 14.3962824640491167 12.4604604679947606 11.9893609698220924   F   F   F
 16.0756709898187218  2.5261984263753923  5.2973801505213629   F   F   F
  4.0830782392452933  0.8506554447103878  0.3887956446629249   F   F   F
  6.0717449197462505 10.7819160601024979  7.0743723118395074   F   F   F
  4.0830782392452933  9.0806051706817232  0.3887956446629249   F   F   F
  6.0671028099181665 19.0187379961560339  7.0711007922007632   F   F   F
 16.2292161674685147 19.0240885607235803 12.9891526002449762   F   F   F
 14.2379013982368381  9.0806051706817232  6.2967810225136578   F   F   F
 16.2265680787377953 10.7819160601024979 12.9823576896902395   F   F   F
 14.2379013982368381  0.8506554447103878  6.2967810225136578   F   F   F
  6.0297217424147993 19.8199434320233259  1.9659273269971054   F   F   F
  4.1251014165767446  9.8886828166312153  8.6515039941735932   F   F   F
  6.0297217424147993  9.9738384141530059  1.9659273269971054   F   F   F
  4.1251014165767446  0.0425777987608954  8.6515039941735932   F   F   F
 14.2799245755682875  0.0425777987608954 11.4052260073561555   F   F   F
 16.1845449014063441  9.9738384141530059  4.7196493401794779   F   F   F
 14.2799245755682875  9.8886828166312153 11.4052260073561555   F   F   F
 16.1845449014063441 19.8199434320233259  4.7196493401794779   F   F   F
  2.2136347901559494  2.5175005587295871  1.2818583479620820   F   F   F
  7.9364706566817800 12.4450506767716362  7.9761249440914588   F   F   F
  2.2136347901559494  7.4137600566625226  1.2818583479620820   F   F   F
  7.9233673493816044 17.3520893091978294  7.9826319898265385   F   F   F
 18.0869081563921270 17.3464905495047788 12.0853055917317800   F   F   F
 12.3684579491474924  7.4137600566625226  5.4037183192145006   F   F   F
 18.0930296896663130 12.4490179521173072 12.0875746472824925   F   F   F
 12.3684579491474924  2.5175005587295871  5.4037183192145006   F   F   F
  1.6881962070130982  0.9207382679108781 12.6129474627524694   F   F   F
  8.4666269519784461 10.8519988833029899  5.9273707955758868   F   F   F
  1.6881962070130982  9.0105223474812313 12.6129474627524694   F   F   F
  8.4691607661061301 18.9526219921145795  5.9374530443386826   F   F   F
 18.6215564240011027 18.9358992115944531  0.7604236120612781   F   F   F
 11.8430193660046434  9.0105223474812313  7.4437825387772794   F   F   F
 18.6214501109699881 10.8519988833029899  0.7582058716006961   F   F   F
 11.8430193660046434  0.9207382679108781  7.4437825387772794   F   F   F
  2.6191221466297452  1.5772552032846385 10.2029786362431807   F   F   F
  7.5357010123617982 11.5085158186767487  3.5174019690665985   F   F   F
  2.6191221466297452  8.3540054121074725 10.2029786362431807   F   F   F
  7.5326619510546005 18.3038538478500783  3.5197188184452362   F   F   F
 17.6834572084672281 18.2848156689981316  3.1674241098587168   F   F   F
 12.7739453056212895  8.3540054121074725  9.8537513652865663   F   F   F
 17.6905241713533421 11.5085158186767487  3.1681746981099845   F   F   F
 12.7739453056212895  1.5772552032846385  9.8537513652865663   F   F   F
  1.4907886384351761 19.0734781753408988 10.5783433653451517   F   F   F
  8.6605141216446260  9.1427877065086367  3.8893856967007774   F   F   F
  1.4943090373469170 10.7197335242755862 10.5749623638772636   F   F   F
  8.6605141216446260  0.7884729088834742  3.8893856967007774   F   F   F
 18.8153372806361716  0.7884729088834742  2.7961909704758057   F   F   F
 11.6491321963384618 10.7197335242755862  9.4817676376524833   F   F   F
 18.8153372806361716  9.1427877065086367  2.7961909704758057   F   F   F
 11.6527544034220831 19.0774433763045934  9.4940561705135842   F   F   F
  4.3968316384186590  2.7045309019182375  8.6446672192582152   F   F   F
  5.7221834023816642 12.6243564598787898  1.9559548248599565   F   F   F
  4.3968316384186590  7.2267297134738726  8.6446672192582152   F   F   F
  5.7707467695478085 17.1547486870907484  1.9631019016143643   F   F   F
 15.8926118287514324 17.1640762866294985  4.7247790327007255   F   F   F
 14.5516547974102028  7.2267297134738726 11.4120627822715335   F   F   F
 15.8965886005447796 12.6336110993146242  4.7277439569539528   F   F   F
 14.5516547974102028  2.7045309019182375 11.4120627822715335   F   F   F
 10.0838326157872533 16.9350969070892745  9.5043138806721892   F   F   F
  0.0850379718339152  7.0141658028945288  2.8615498313442469   F   F   F
 10.0803283262448602 12.8621556377890851  9.5154649486532605   F   F   F
  0.0850379718339152  2.9170948124975822  2.8615498313442469   F   F   F
 10.2398611308254601  2.9170948124975822  3.8240268358323357   F   F   F
 20.2200853066476753 12.8455903130785032 10.5033969930498721   F   F   F
 10.2398611308254601  7.0141658028945288  3.8240268358323357   F   F   F
 20.2218784883076417 16.9477129158105555 10.5092736871984549   F   F   F
  7.6969790152747022 16.5647466564075216 10.5246090534787271   F   F   F
  2.4846705705810739  6.6155995192168131  3.8215753922960478   F   F   F
  7.6886247434253780 13.2350098158385165 10.5214520381813248   F   F   F
  2.4846705705810739  3.3156610961752970  3.8215753922960478   F   F   F
 12.6394937295726173  3.3156610961752970  2.8640012748805352   F   F   F
 17.8132083385976969 13.2504641037230861  9.5515679399440359   F   F   F
 12.6394937295726173  6.6155995192168131  2.8640012748805352   F   F   F
 17.8169290362365054 16.5482695071211161  9.5477978850245844   F   F   F
  8.5988159470346854 14.8974167187380715  8.6690798307404169   F   F   F
  1.5419329197154532  4.9656303076960553  1.9688022888379906   F   F   F
 11.6967560787069971  4.9656303076960553  4.7167743783385925   F   F   F
 18.7620777081246466 14.8980921438814047 11.3984358386345708   F   F   F
  6.4427629390003833 17.1809727423133722 12.7752978509316222   F   F   F
  3.7059346158871325  7.2425982351504699  6.0879969914885113   F   F   F
  6.4437753467918366 12.6159901517902338 12.7746717938313950   F   F   F
  3.7059346158871325  2.6886623802416403  6.0879969914885113   F   F   F
 13.8607577748786781  2.6886623802416403  0.5975796756880712   F   F   F
 16.5849551720362776 12.6109717175917595  7.2853507308776981   F   F   F
 13.8607577748786781  7.2425982351504699  0.5975796756880712   F   F   F
 16.5809857191052465 17.1889046789647466  7.2832349797385030   F   F   F
  5.0451540086731228 16.8073458074027187 10.5600466279535219   F   F   F
  5.1270102565117828  6.8928686523636049  3.8857134349154596   F   F   F
  5.0414600950399224 12.9817178289242836 10.5596256821589947   F   F   F
  5.1270102565117828  3.0383919630285057  3.8857134349154596   F   F   F
 15.2818334155033284  3.0383919630285057  2.7998632322611234   F   F   F
 15.1687163153079840 12.9648212087037074  9.4821674945795618   F   F   F
 15.2818334155033284  6.8928686523636049  2.7998632322611234   F   F   F
 15.1697246605979412 16.8272603324641175  9.4813687006814469   F   F   F
  5.9854445256495312 14.8967913168391277  0.6618262884013205   F   F   F
  4.1584246617385503  4.9656303076960553  7.3574447498228954   F   F   F
 14.3132478207300924  4.9656303076960553 12.6992852517067583   F   F   F
 16.2576185812961853 14.8993658387363475  5.9946860019877937   F   F   F
  3.9776208545391447 16.5559197400953551  0.0967678731757168   F   F   F
  6.1734543920290044  6.6085914233823377  6.7692293982920377   F   F   F
  3.9778059516865780 13.2580441552333212  0.0697862940391195   F   F   F
  6.1734543920290044  3.3226691920097720  6.7692293982920377   F   F   F
 16.3282775510205482  3.3226691920097720 13.2875006032377101   F   F   F
 14.1576108871570607 13.3952341864250979  6.5869854776906651   F   F   F
 16.3282775510205482  6.6085914233823377 13.2875006032377101   F   F   F
 14.1540859736651665 16.4011491791777964  6.5781240668541461   F   F   F
  1.8903410119832631 14.8986644113642317  0.2731645769063555   F   F   F
  8.2628481081252829  4.9656303076960553  6.9524502333987286   F   F   F
 18.4176712671168268  4.9656303076960553 13.1042797681310184   F   F   F
 11.9693272418480774 14.9004531190572020  6.4276938956682015   F   F   F
  1.6339514671796398 17.2703817562884758 12.4981111339332305   F   F   F
  8.5131568979229311  7.3415004446393679  5.8058209428476975   F   F   F
  1.6279270400127410 12.5268791546073182 12.4950706559930929   F   F   F
  8.5131568979229311  2.5897601707527422  5.8058209428476975   F   F   F
 18.6679800569143310  2.5897601707527422  0.8797557243288845   F   F   F
 11.8637673044359193 12.5163307024756918  7.5810187825857600   F   F   F
 18.6679800569143310  7.3415004446393679  0.8797557243288845   F   F   F
 11.8818922693605558 17.3018969300131857  7.5827466428102737   F   F   F
  2.4714896836260225 16.6858180207274103 10.0064295672797403   F   F   F
  7.6891086568283837  6.7513042184734262  3.3094339217652693   F   F   F
  2.4679892670175820 13.1109007423577886 10.0045883499641146   F   F   F
  7.6891086568283837  3.1799563969186848  3.3094339217652693   F   F   F
 17.8439318158197828  3.1799563969186848  3.3761427454113133   F   F   F
 12.6162573732801402 13.1159414783983408 10.0851841617045714   F   F   F
 17.8439318158197828  6.7513042184734262  3.3761427454113133   F   F   F
 12.6177963032607803 16.6822956517537122 10.0909308403036171   F   F   F
  4.1117496639246900 14.8963095772736249  8.9668553100569319   F   F   F
  6.0281749005281000  4.9656303076960553  2.2907179157230457   F   F   F
 16.1829980595196439  4.9656303076960553  4.3948587514535369   F   F   F
 14.2931742951062368 14.8981525663002135 11.0874368449951923   F   F   F
  8.6114921007489755  1.4146856099378582  9.1990931219956522   F   F   F
  1.5433310582425686 11.3459462253299677  2.5135164548190696   F   F   F
  8.6114921007489755  8.5165750054542517  9.1990931219956522   F   F   F
  1.5385573548004046 18.4499982379987735  2.5173818129888370   F   F   F
 11.6965196536747822 18.4561229585565698  4.1650985489348029   F   F   F
 18.7663152597405194  8.5165750054542517 10.8576368795340965   F   F   F
 11.6981542172341122 11.3459462253299677  4.1720602123575130   F   F   F
 18.7663152597405194  1.4146856099378582 10.8576368795340965   F   F   F
  6.5543253377466240  0.6425666935286518 11.2753241723876716   F   F   F
  3.6004978212449203 10.5738273089207624  4.5897475052110890   F   F   F
  6.5543253377466240  9.2886939218634588 11.2753241723876716   F   F   F
  3.5980565889817480 19.2208099645990202  4.5911589297048954   F   F   F
 13.7496315569861647 19.2230908440396568  2.0905574275041201   F   F   F
 16.7091484967381696  9.2886939218634588  8.7814058291420753   F   F   F
 13.7553209802364638 10.5738273089207624  2.0958291619654932   F   F   F
 16.7091484967381696  0.6425666935286518  8.7814058291420753   F   F   F
  5.6448362218964876  1.0320241432667694  0.8173882092636284   F   F   F
  4.5099869370950563 10.9632847586588795  7.5029648764402106   F   F   F
  5.6448362218964876  8.8992364721253416  0.8173882092636284   F   F   F
  4.5073642374665912 18.8305851819145325  7.5031000310831164   F   F   F
 14.6710124353985165 18.8366928834611009 12.5556998802982633   F   F   F
 15.7996593808880306  8.8992364721253416  5.8681884579129546   F   F   F
 14.6648100960866010 10.9632847586588795 12.5537651250895372   F   F   F
 15.7996593808880306  1.0320241432667694  5.8681884579129546   F   F   F
  2.4881439176978279  1.0483023193839807  0.6417355337127613   F   F   F
  7.6666792412937159 10.9795629347759487  7.3273122008893434   F   F   F
  2.4881439176978279  8.8829582960081304  0.6417355337127613   F   F   F
  7.6588280735087242 18.8141521746349198  7.3295126672626960   F   F   F
 17.8225217055731626 18.8153349580745193 12.7309040036468311   F   F   F
 12.6429670766893718  8.8829582960081304  6.0438411334638209   F   F   F
 17.8215024002852616 10.9795629347759487 12.7294178006404035   F   F   F
 12.6429670766893718  1.0483023193839807  6.0438411334638209   F   F   F
  1.4669611892426841  0.7765305914257938 11.0116839679886329   F   F   F
  8.6878619697488606 10.7077912068179053  4.3261073008120503   F   F   F
  1.4669611892426841  9.1547300239663159 11.0116839679886329   F   F   F
  8.6846163687463189 19.0884312128344718  4.3388397705373407   F   F   F
 18.8408664704742819 19.0850467261951913  2.3618205830585786   F   F   F
 11.6217843482342271  9.1547300239663159  9.0450460335411140   F   F   F
 18.8426851287404027 10.7077912068179053  2.3594693663645319   F   F   F
 11.6217843482342271  0.7765305914257938  9.0450460335411140   F   F   F
  4.0843573639185831  1.3979692287630687  9.5406986308418436   F   F   F
  6.0704657950729608 11.3292298441551793  2.8551219636652609   F   F   F
  4.0843573639185831  8.5332913866290419  9.5406986308418436   F   F   F
  6.0665831339519656 18.4656902251116506  2.8557865716906430   F   F   F
 16.2188500878225454 18.4683776922350305  3.8263308168211556   F   F   F
 14.2391805229101269  8.5332913866290419 10.5160313706879034   F   F   F
 16.2252889540645029 11.3292298441551793  3.8304547035113221   F   F   F
 14.2391805229101269  1.3979692287630687 10.5160313706879034   F   F   F
  8.5744541334818223 16.4447928998885402  9.1605080942459818   F   F   F
  1.5763273773718030  6.5092533948319806  2.4761345411157811   F   F   F
  8.5720770908766877 13.3501080665347640  9.1633998594988206   F   F   F
  1.5763273773718030  3.4220072205601295  2.4761345411157811   F   F   F
 11.7311505363633461  3.4220072205601295  4.2094421260608010   F   F   F
 18.7316746377296930 13.3532952840105299 10.8940074581692734   F   F   F
 11.7311505363633461  6.5092533948319806  4.2094421260608010   F   F   F
 18.7308929448632995 16.4422170304072637 10.8935283252122943   F   F   F
  6.4416155482304580 17.3702524864157368 11.1638824532804382   F   F   F
  3.7180465794847750  7.4382500466046224  4.4764479790710539   F   F   F
  6.4394622299297790 12.4236392860460061 11.1659021866269850   F   F   F
  3.7180465794847750  2.4930105687874886  4.4764479790710539   F   F   F
 13.8728697384763198  2.4930105687874886  2.2091286881055288   F   F   F
 16.5832649620375072 12.4226162048387430  8.8993377065609724   F   F   F
 13.8728697384763198  7.4382500466046224  2.2091286881055288   F   F   F
 16.5827053694753523 17.3725149643685306  8.8978109233348270   F   F   F
  5.5382951376511489 16.4400847748565972  0.5354252923038452   F   F   F
  4.6170079927443011  6.5095434530137322  7.2176998349999728   F   F   F
  5.5357707450813960 13.3501854812368546  0.5351806414527511   F   F   F
  4.6170079927443011  3.4217171623783784  7.2176998349999728   F   F   F
 14.7718311517358440  3.4217171623783784 12.8390301665297759   F   F   F
 15.7262346584551196 13.3782655036437657  6.1433610852242335   F   F   F
 14.7718311517358440  6.5095434530137322 12.8390301665297759   F   F   F
 15.7236217950196053 16.4197976699829624  6.1405764963416960   F   F   F
  2.3753729760737601 16.4463634331340849  0.3141454166278866   F   F   F
  7.7766577971384301  6.5146392987053847  6.9908051240805120   F   F   F
  2.3788474601838847 13.3495659297321581  0.3066079124590412   F   F   F
  7.7766577971384301  3.4166213166867263  6.9908051240805120   F   F   F
 17.9314809561299739  3.4166213166867263 13.0659248774492358   F   F   F
 12.5632426848865819 13.3306599289607028  6.3788517590970013   F   F   F
 17.9314809561299739  6.5146392987053847 13.0659248774492358   F   F   F
 12.5579375481300222 16.4718110610311008  6.3787316421686091   F   F   F
  1.3881032307552197 17.4891962698284971 10.9045261825969764   F   F   F
  8.7665009375840501  7.5582981210348308  4.2126116944586931   F   F   F
  1.3861190861181329 12.3041163644822138 10.9014032542558272   F   F   F
  8.7665009375840501  2.3729624943572789  4.2126116944586931   F   F   F
 18.9213240965755958  2.3729624943572789  2.4729649727178891   F   F   F
 11.5527449706030865 12.3036970757113853  9.1726033849893778   F   F   F
 18.9213240965755958  7.5582981210348308  2.4729649727178891   F   F   F
 11.5587216892983289 17.4952898579875509  9.1735454767411646   F   F   F
  3.9619887288970803 16.4462177446178224  9.4047537303293893   F   F   F
  6.1940601493177123  6.5178291587723436  2.7207962266042216   F   F   F
  3.9598232016362411 13.3450779894637286  9.4046778661488588   F   F   F
  6.1940601493177123  3.4134314566197661  2.7207962266042216   F   F   F
 16.3488833083092580  3.4134314566197661  3.9647804405723610   F   F   F
 14.1174018107439565 13.3469027825012443 10.6607165682931608   F   F   F
 16.3488833083092580  6.5178291587723436  3.9647804405723610   F   F   F
 14.1206131644018811 16.4501598389394381 10.6636216887824595   F   F   F
 10.0806407370225486 14.9417120737404741  5.9650586521259417   F   F   F
  8.53432362  15.15830877   3.83269284                         T   T   T
  8.56336548  15.42828621   5.15075257                         T   T   T
  8.59340493  14.06638653   3.28390377                         T   T   T
  8.42650756  16.11180511   3.2989829                          T   T   T
