 O Si Mn  H                             
   1.0000000000000000     
    20.3096463179830877    0.0000000000000000    0.0000000000000000
     0.0000000000000000   19.8625212307842212    0.0000000000000000
     0.0000000000000000    0.0000000000000000   13.3711533343531652
   O    Si   Mn   H 
   192    96     1     2
Selective dynamics
Direct
  0.5025887620190588  0.0727797837547186  0.7075253542784736   F   F   F
  0.9974078170954428  0.5727822700759333  0.2075251050237270   F   F   F
  0.5025887620190588  0.4272201852627049  0.7075253542784736   F   F   F
  0.9973859838086083  0.9271825698159926  0.2075769740639564   T   T   T
  0.4974750440069277  0.9274411629190049  0.2921516279927421   T   T   T
  0.0025909363056442  0.4272201852627049  0.7924746456071219   F   F   F
  0.4974089573906113  0.5727822700759333  0.2924751442310196   F   F   F
  0.0025909363056442  0.0727797837547186  0.7924746456071219   F   F   F
  0.3868826604352336  0.0693889755477741  0.7958400994969068   F   F   F
  0.1131176764001935  0.5693889445651976  0.2958398502421602   F   F   F
  0.3868826604352336  0.4306109934696494  0.7958400994969068   F   F   F
  0.1129623966498608  0.9308748141106902  0.2962348383193631   T   T   T
  0.6129645083626947  0.9308027376761026  0.2038465798266300   T   T   T
  0.8868839820244006  0.4306109934696494  0.7041599003886887   F   F   F
  0.6131175208587578  0.5693889445651976  0.2041603990125864   F   F   F
  0.8868839820244006  0.0693889755477741  0.7041599003886887   F   F   F
  0.4023994249847505  0.1395880194556014  0.6299568772694428   F   F   F
  0.0977252989721786  0.6397670449389209  0.1305360332875112   T   T   T
  0.4023994249847505  0.3604119495618221  0.6299568772694428   F   F   F
  0.0978293283259403  0.8602446668580551  0.1308454278303937   T   T   T
  0.5979218992674309  0.8602232868586022  0.3692169685589171   T   T   T
  0.9023987770664448  0.3604119495618221  0.8700446183734343   F   F   F
  0.5978015221020709  0.6396485499588620  0.3697126640397844   T   T   T
  0.9023987770664448  0.1395880194556014  0.8700446183734343   F   F   F
  0.4045033513324086  0.0051825243534793  0.6227510665520910   F   F   F
  0.0954969855030257  0.5051825940630508  0.1227515651759887   F   F   F
  0.4045033513324086  0.4948173439717962  0.6227510665520910   F   F   F
  0.0955237898691073  0.9947020286651476  0.1226655645152836   T   T   T
  0.5955327230671073  0.9946488096901983  0.3774477056265075   T   T   T
  0.9045012262835073  0.4948173439717962  0.8772466896975715   F   F   F
  0.5954953528309943  0.5051825940630508  0.3772486840787579   F   F   F
  0.9045012262835073  0.0051825243534793  0.8772466896975715   F   F   F
  0.3244128379609492  0.0395323428922509  0.9639931334033705   F   F   F
  0.1755870064976151  0.5395337215997955  0.4639936320272682   F   F   F
  0.3244128379609492  0.4604677268173205  0.9639931334033705   F   F   F
  0.1758006571193143  0.9607854193418506  0.4640262999713661   T   T   T
  0.6756742293541794  0.9605489818323957  0.0360415982279535   T   T   T
  0.8244112052889179  0.4604677268173205  0.5360068664822251   F   F   F
  0.6755853738255837  0.5395337215997955  0.0360066172274784   F   F   F
  0.8244112052889179  0.0395323428922509  0.5360068664822251   F   F   F
  0.3247498779525563  0.9537707292280559  0.8085485300844618   T   T   T
  0.1753560817475446  0.4538069409854160  0.3088267628635180   F   F   F
  0.3246442550878825  0.5461945074317072  0.8088232727250499   F   F   F
  0.1753560817475446  0.0461928769937856  0.3088267628635180   F   F   F
  0.6753539566986504  0.0461928769937856  0.1911734863912287   F   F   F
  0.8246426224158512  0.5461945074317072  0.6911729877673309   F   F   F
  0.6753539566986504  0.4538069409854160  0.1911734863912287   F   F   F
  0.8244640796716060  0.9538780273742368  0.6913857993399458   T   T   T
  0.2554254229137740  0.0666023202507517  0.8022045467418053   F   F   F
  0.2445749139216531  0.5665997719643769  0.3022080368802733   F   F   F
  0.2554254229137740  0.4333976487666718  0.8022045467418053   F   F   F
  0.2446195506951609  0.9334993433783971  0.3022431910086388   T   T   T
  0.7444954216086203  0.9333069320564429  0.1979983075110200   T   T   T
  0.7554242826186055  0.4333976487666718  0.6977917137505756   F   F   F
  0.7445722964958890  0.5665997719643769  0.1977922123744733   F   F   F
  0.7554242826186055  0.0666023202507517  0.6977917137505756   F   F   F
  0.2915289566001675  0.1271842567541057  0.1038205131066334   F   F   F
  0.2083104310047388  0.6269331416940201  0.6040286053698194   T   T   T
  0.2915289566001675  0.3728157122633107  0.1038205131066334   F   F   F
  0.2076201849804562  0.8729407057834939  0.6039863731830383   T   T   T
  0.7089840115764903  0.8730073105761510  0.8962828516527591   T   T   T
  0.7915302781893274  0.3728157122633107  0.3961797361481132   F   F   F
  0.7086763294794365  0.6271711256939737  0.8960995034354325   T   T   T
  0.7915302781893274  0.1271842567541057  0.3961797361481132   F   F   F
  0.2010414133300102  0.0428271411325980  0.0290772224562801   F   F   F
  0.2989584311285540  0.5428263549588834  0.5290770229838415   F   F   F
  0.2010414133300102  0.4571730796152025  0.0290772224562801   F   F   F
  0.2989838911427827  0.9565477408859658  0.5300802810795320   T   T   T
  0.7990624007976630  0.9576907543501703  0.9712779165747579   T   T   T
  0.7010412577885745  0.4571730796152025  0.4709227276470074   F   F   F
  0.7989602450945767  0.5428263549588834  0.9709259684163243   F   F   F
  0.7010412577885745  0.0428271411325980  0.4709227276470074   F   F   F
  0.2968894635383705  0.9978541882830996  0.1470277059009675   F   F   F
  0.2031103809201937  0.4978562331087062  0.6470272072770697   F   F   F
  0.2968894635383705  0.5021437049261337  0.1470277059009675   F   F   F
  0.2031103809201937  0.0021436352165622  0.6470272072770697   F   F   F
  0.7031092406250252  0.0021436352165622  0.8529705489725998   F   F   F
  0.7968873384894692  0.5021437049261337  0.3529725433537791   F   F   F
  0.7031092406250252  0.4978562331087062  0.8529705489725998   F   F   F
  0.7968873384894692  0.9978541882830996  0.3529725433537791   F   F   F
  0.1089945125258041  0.1267462458944166  0.0958675716257531   F   F   F
  0.3926054333757811  0.6267365347218156  0.5957897976955678   T   T   T
  0.1089945125258041  0.3732537231230069  0.0958675716257531   F   F   F
  0.3920298169223292  0.8726361523511613  0.5943469534347156   T   T   T
  0.8905803876326400  0.8732885521797560  0.9041094860917542   T   T   T
  0.6089963264918268  0.3732537231230069  0.4041326776289935   F   F   F
  0.8910179801099163  0.6266917838254858  0.9039855449919377   T   T   T
  0.6089963264918268  0.1267462458944166  0.4041326776289935   F   F   F
  0.0831230624880561  0.0463555451647792  0.9432918525879828   F   F   F
  0.4168772743473781  0.5463556148743507  0.4432953427264508   F   F   F
  0.0831230624880561  0.4536443231604892  0.9432918525879828   F   F   F
  0.4166328894172427  0.9537311740892852  0.4429183264023023   T   T   T
  0.9169927754508328  0.9535386653768104  0.0567295338278144   T   T   T
  0.5831219221928876  0.4536443231604892  0.5567044079043981   F   F   F
  0.9168746569216140  0.5463556148743507  0.0567046073768367   F   F   F
  0.5831219221928876  0.0463555451647792  0.5567044079043981   F   F   F
  0.1289594096811513  0.0794088515588598  0.7630605786104070   F   F   F
  0.3710404347774130  0.5794078136547611  0.2630588335983788   F   F   F
  0.1289594096811513  0.4205916209193248  0.7630605786104070   F   F   F
  0.3710627554194051  0.9205855095525350  0.2627845416516280   T   T   T
  0.8710199714245835  0.9206050924748247  0.2368648836113550   T   T   T
  0.6289572846322500  0.4205916209193248  0.7369409170324701   F   F   F
  0.8710392944822516  0.5794078136547611  0.2369414156563678   F   F   F
  0.6289572846322500  0.0794088515588598  0.7369409170324701   F   F   F
  0.0736390315722830  0.9602880249692589  0.7910790248974391   T   T   T
  0.4264234770219275  0.4603035986101247  0.2908791712086156   F   F   F
  0.0735763674366368  0.5396948290424461  0.7908816640992882   F   F   F
  0.4264234770219275  0.0396965214455207  0.2908791712086156   F   F   F
  0.9264218443498962  0.0396965214455207  0.2091210780461239   F   F   F
  0.5735747347645983  0.5396948290424461  0.7091213273008705   F   F   F
  0.9264218443498962  0.4603035986101247  0.2091210780461239   F   F   F
  0.5728388566037282  0.9601897497454006  0.7089918859998589   T   T   T
  0.2164897374951735  0.1361624724563342  0.6465164061644657   F   F   F
  0.2836138969681511  0.6360934863458175  0.1464315088635192   T   T   T
  0.2164897374951735  0.3638374965610893  0.6465164061644657   F   F   F
  0.2835195299966822  0.8638889349964894  0.1463898577512982   T   T   T
  0.7839334764179013  0.8636496137209307  0.3534451476771650   T   T   T
  0.7164920438380662  0.3638374965610893  0.8534865852357001   F   F   F
  0.7837955807262710  0.6362740967514597  0.3533987585783880   T   T   T
  0.7164920438380662  0.1361624724563342  0.8534865852357001   F   F   F
  0.4969464284774207  0.8513301645984312  0.7135739863031850   T   T   T
  0.0041870743915737  0.3531359346833085  0.2140092128513800   F   F   F
  0.4972919508581163  0.6491125054712852  0.7139054272262637   T   T   T
  0.0041870743915737  0.1468645377948761  0.2140092128513800   F   F   F
  0.5041889868329790  0.1468645377948761  0.2859910364033666   F   F   F
  0.9966680418936924  0.6474506224957137  0.7874557356085198   T   T   T
  0.5041889868329790  0.3531359346833085  0.2859910364033666   F   F   F
  0.9961158911575791  0.8529840762940887  0.7874624294426985   T   T   T
  0.3784890009837748  0.8335589081998666  0.7860032673629200   T   T   T
  0.1223394027201721  0.3330694992409491  0.2858078061360345   F   F   F
  0.3788759053645961  0.6665994406259637  0.7867010973267764   T   T   T
  0.1223394027201721  0.1669304697764744  0.2858078061360345   F   F   F
  0.6223397395555992  0.1669304697764744  0.2141924431187121   F   F   F
  0.8792777676630632  0.6662821752955590  0.7135057763771394   T   T   T
  0.6223397395555992  0.3330694992409491  0.2141924431187121   F   F   F
  0.8785023556041204  0.8335501327653833  0.7138151212420948   T   T   T
  0.4218899420074093  0.7500387737852227  0.6440469778283925   T   T   T
  0.0759210660716789  0.2499999845087117  0.1472423470712698   F   F   F
  0.5759233724145716  0.2499999845087117  0.3527571543048325   F   F   F
  0.9235774436407782  0.7500132825366118  0.8529342260115311   T   T   T
  0.3174883849774163  0.8646805828849823  0.9551453404124722   T   T   T
  0.1824719122124066  0.3646364887844626  0.4553085173556966   F   F   F
  0.3175629822223946  0.6352511946761480  0.9553036530960889   T   T   T
  0.1824719122124066  0.1353634802329609  0.4553085173556966   F   F   F
  0.6824737261784293  0.1353634802329609  0.0446917318990501   F   F   F
  0.8181966549813802  0.6352558925145994  0.5445877770471825   T   T   T
  0.6824737261784293  0.3646364887844626  0.0446917318990501   F   F   F
  0.8177469108328163  0.8648001679161489  0.5446952436576683   T   T   T
  0.2483113445899255  0.8463203029097910  0.7896057875491119   T   T   T
  0.2524421114837594  0.3470289556854951  0.2906039518682988   F   F   F
  0.2487497230287052  0.6540479487225621  0.7896133936640403   T   T   T
  0.2524421114837594  0.1529710133319284  0.2906039518682988   F   F   F
  0.7524404788117280  0.1529710133319284  0.2093955495078035   F   F   F
  0.7491830732650001  0.6541242680714759  0.7100781172555569   T   T   T
  0.7524404788117280  0.3470289556854951  0.2093955495078035   F   F   F
  0.7483876510379250  0.8463825060628153  0.7097610391287178   T   T   T
  0.2961379743650270  0.7500094799640140  0.0498070478780034   T   T   T
  0.2047514730139781  0.2499999845087117  0.5502479715865078   F   F   F
  0.7047488555882140  0.2499999845087117  0.9497535240563693   F   F   F
  0.7950093383053037  0.7499640334504862  0.4504799624524291   T   T   T
  0.1961825565556669  0.8320985380116502  0.0066766552968288   T   T   T
  0.3039663962308268  0.3327165732493995  0.5062562540965345   F   F   F
  0.1962723824263569  0.6680161349934677  0.0067437350905104   T   T   T
  0.3039663962308268  0.1672833957680240  0.5062562540965345   F   F   F
  0.8039677178199867  0.1672833957680240  0.9937437457890610   F   F   F
  0.6964310081953530  0.6661386446065141  0.4940259934039510   T   T   T
  0.8039677178199867  0.3327165732493995  0.9937437457890610   F   F   F
  0.6961408210187401  0.8333773889332999  0.4934785831940783   T   T   T
  0.0928576511603783  0.7500249703490828  0.0200826425754548   T   T   T
  0.4068436185756568  0.2499999845087117  0.5199588865784506   F   F   F
  0.9068449401648166  0.2499999845087117  0.9800426090644265   F   F   F
  0.5943913215097686  0.7497710560309492  0.4808952539735520   T   T   T
  0.0812244794944136  0.8701450101841086  0.9353482619951747   T   T   T
  0.4191683039040441  0.3696157156837501  0.4342048778308225   F   F   F
  0.0815619536282274  0.6298040757863510  0.9351831028134343   T   T   T
  0.4191683039040441  0.1303842533336734  0.4342048778308225   F   F   F
  0.9191691331163412  0.1303842533336734  0.0657950722724649   F   F   F
  0.5808902601700997  0.6298602060594936  0.5650165381716151   T   T   T
  0.9191691331163412  0.3696157156837501  0.0657950722724649   F   F   F
  0.5811615828692750  0.8699323546778487  0.5651004324733764   T   T   T
  0.1217437731936847  0.8398838342366408  0.7489933646885916   T   T   T
  0.3785939882759877  0.3399014617306690  0.2475052014770824   F   F   F
  0.1222327143218063  0.6598572974487433  0.7487649480324792   T   T   T
  0.3785939882759877  0.1600985072867545  0.2475052014770824   F   F   F
  0.8785923556039563  0.1600985072867545  0.2524942998990269   F   F   F
  0.6227441426576906  0.6598479983485102  0.7511864536907036   T   T   T
  0.8785923556039563  0.3399014617306690  0.2524942998990269   F   F   F
  0.6222239449747602  0.8403103186676281  0.7520545693645029   T   T   T
  0.2024079911491288  0.7500277672070625  0.6706230942786237   T   T   T
  0.2968136375010317  0.2499999845087117  0.1713180563201462   F   F   F
  0.7968134819595960  0.2499999845087117  0.3286821929346004   F   F   F
  0.7030870376989851  0.7501346205795832  0.8296352860494141   T   T   T
  0.4240098456256689  0.0712240900116683  0.6879802938438928   F   F   F
  0.0759899988328954  0.5712215417252935  0.1879807924677834   F   F   F
  0.4240098456256689  0.4287758790057552  0.6879802938438928   F   F   F
  0.0759930062666708  0.9287869900329268  0.1882987773298753   T   T   T
  0.5759821822184591  0.9286898499192531  0.3118028342868897   T   T   T
  0.9240091977073703  0.4287758790057552  0.8120167145271324   F   F   F
  0.5759923051757880  0.5712215417252935  0.3120194567869561   F   F   F
  0.9240091977073703  0.0712240900116683  0.8120167145271324   F   F   F
  0.3227200462962543  0.0323507269059107  0.8432556054107536   F   F   F
  0.1772802905391799  0.5323493365792871  0.3432575997919329   F   F   F
  0.3227200462962543  0.4676490910732838  0.8432556054107536   F   F   F
  0.1773375173012561  0.9676994154601543  0.3432891825922618   T   T   T
  0.6772841965988977  0.9676750424836285  0.1568087761159985   T   T   T
  0.8227174288704902  0.4676490910732838  0.6567428987175532   F   F   F
  0.6772791502440114  0.5323493365792871  0.1567426494628066   F   F   F
  0.8227174288704902  0.0323507269059107  0.6567428987175532   F   F   F
  0.2779388627266144  0.0519581571749583  0.0611307027569552   F   F   F
  0.2220614741088127  0.5519591331138969  0.5611303537087835   F   F   F
  0.2779388627266144  0.4480418118424652  0.0611307027569552   F   F   F
  0.2217945095180042  0.9478495885203451  0.5613668497224280   T   T   T
  0.7222772306417521  0.9482736162625715  0.9390747019019567   T   T   T
  0.7779406766926442  0.4480418118424652  0.4388693969220654   F   F   F
  0.7220608261905141  0.5519591331138969  0.9388718898127308   F   F   F
  0.7779406766926442  0.0519581571749583  0.4388693969220654   F   F   F
  0.1225102574926140  0.0527777912894223  0.0479940648314354   F   F   F
  0.3774895869659503  0.5527797741498759  0.5479938653589969   F   F   F
  0.1225102574926140  0.4472221777280012  0.0479940648314354   F   F   F
  0.3775147106014327  0.9475906199877938  0.5475023541923857   T   T   T
  0.8775008743484990  0.9472877628157079  0.9521274215447055   T   T   T
  0.6225120714586438  0.4472221777280012  0.4520058852718520   F   F   F
  0.8774894314245145  0.5527797741498759  0.9520046387693171   F   F   F
  0.6225120714586438  0.0527777912894223  0.4520058852718520   F   F   F
  0.0722297167086126  0.0390952886079958  0.8235415244030406   F   F   F
  0.4277701277499517  0.5390957107400993  0.3235405272696497   F   F   F
  0.0722297167086126  0.4609047307555016  0.8235415244030406   F   F   F
  0.4278023521064570  0.9607936899272379  0.3230126192296615   T   T   T
  0.9277803153652407  0.9608757539294682  0.1764959761478551   T   T   T
  0.5722305459209096  0.4609047307555016  0.6764599712398365   F   F   F
  0.9277709569622488  0.5390957107400993  0.1764597219850899   F   F   F
  0.5722305459209096  0.0390952886079958  0.6764599712398365   F   F   F
  0.2011044375688371  0.0703823036238376  0.7135285761392041   F   F   F
  0.2988958992665900  0.5703807622589849  0.2135283268844574   F   F   F
  0.2011044375688371  0.4296176653935859  0.7135285761392041   F   F   F
  0.2988671522498593  0.9295247081879220  0.2135515968992957   T   T   T
  0.7989404293615950  0.9295519313157062  0.2865451314567685   T   T   T
  0.7011052667811342  0.4296176653935859  0.7864691801104584   F   F   F
  0.7988962361020242  0.5703807622589849  0.2864719223702821   F   F   F
  0.7011052667811342  0.0703823036238376  0.7864691801104584   F   F   F
  0.4230669351177492  0.8281139935959955  0.6858728756973076   T   T   T
  0.0776148424901066  0.3277151940767524  0.1851852221033425   F   F   F
  0.4231063682868118  0.6719029548442910  0.6861109568001186   T   T   T
  0.0776148424901066  0.1722847749406711  0.1851852221033425   F   F   F
  0.5776171488329993  0.1722847749406711  0.3148150271514041   F   F   F
  0.9229417580069792  0.6722520847465446  0.8151535629862664   T   T   T
  0.5776171488329993  0.3277151940767524  0.3148150271514041   F   F   F
  0.9224734759254029  0.8277567914836628  0.8151787182111165   T   T   T
  0.3169312054323328  0.8744926034932241  0.8347926897991149   T   T   T
  0.1830681805969121  0.3744866985200090  0.3347841347761005   F   F   F
  0.3171941243608660  0.6255318510204011  0.8349086870458775   T   T   T
  0.1830681805969121  0.1255132704974145  0.3347841347761005   F   F   F
  0.6830695021860791  0.1255132704974145  0.1652161144786461   F   F   F
  0.8179473249713141  0.6255764582215362  0.6651214606268804   T   T   T
  0.6830695021860791  0.3744866985200090  0.1652161144786461   F   F   F
  0.8173827588397159  0.8745545143637564  0.6652184020300974   T   T   T
  0.2729136495771342  0.8275314132549821  0.0399811453883340   T   T   T
  0.2273308913268437  0.3277297944387385  0.5397963675621256   F   F   F
  0.2729906486364349  0.6724239951214988  0.0400677102316445   T   T   T
  0.2273308913268437  0.1722701745786850  0.5397963675621256   F   F   F
  0.7273292586548052  0.1722701745786850  0.9602013886875440   F   F   F
  0.7730251350631329  0.6720427179277921  0.4603815057828474   T   T   T
  0.7273292586548052  0.3277297944387385  0.9602013886875440   F   F   F
  0.7727999543821039  0.8278528623327840  0.4603306281597553   T   T   T
  0.1172144542922808  0.8278791937706235  0.0236577887706223   T   T   T
  0.3829047477362622  0.3279865594254545  0.5228270011711871   F   F   F
  0.1173188510008762  0.6722014452297262  0.0235335616315430   T   T   T
  0.3829047477362622  0.1720134095919690  0.5228270011711871   F   F   F
  0.8829055769485592  0.1720134095919690  0.9771707550784754   F   F   F
  0.6175803017621385  0.6717733026189612  0.4768426737185941   T   T   T
  0.8829055769485592  0.3279865594254545  0.9771707550784754   F   F   F
  0.6171851288131355  0.8279314756523930  0.4763973701987802   T   T   T
  0.0686312566817725  0.8806189918742738  0.8161384414445600   T   T   T
  0.4316421794227736  0.3805307449230426  0.3150521046809729   F   F   F
  0.0690301158161667  0.6193704418890577  0.8159839626057787   T   T   T
  0.4316421794227736  0.1194692240943809  0.3150521046809729   F   F   F
  0.9316410391276122  0.1194692240943809  0.1849473966951294   F   F   F
  0.5692784186323827  0.6195014724012089  0.6843276817741897   T   T   T
  0.9316410391276122  0.3805307449230426  0.1849473966951294   F   F   F
  0.5691502488251290  0.8804549055213068  0.6841537096927509   T   T   T
  0.1948638275144312  0.8279201150166460  0.7032944934770924   T   T   T
  0.3049811849512878  0.3281471634073441  0.2034828209627761   F   F   F
  0.1953372363067614  0.6720200366092758  0.7031034047924752   T   T   T
  0.3049811849512878  0.1718528056100794  0.2034828209627761   F   F   F
  0.8049820141635848  0.1718528056100794  0.2965174282919705   F   F   F
  0.6959568259247637  0.6720851725735068  0.7965388475634904   T   T   T
  0.8049820141635848  0.3281471634073441  0.2965174282919705   F   F   F
  0.6956380369513372  0.8282084291171079  0.7967845793518249   T   T   T
  0.3785927395235660  0.7612055309802174  0.4648040798357742   T   T   T
  0.4542916616762505  0.7830785375184737  0.4240283306585813   T   T   T
  0.4117459578790844  0.7680983753439489  0.3569566041268603   T   T   T

  0.00000000E+00  0.00000000E+00  0.00000000E+00
  0.00000000E+00  0.00000000E+00  0.00000000E+00
  0.00000000E+00  0.00000000E+00  0.00000000E+00
  0.00000000E+00  0.00000000E+00  0.00000000E+00
  0.00000000E+00  0.00000000E+00  0.00000000E+00
  0.00000000E+00  0.00000000E+00  0.00000000E+00
  0.00000000E+00  0.00000000E+00  0.00000000E+00
  0.00000000E+00  0.00000000E+00  0.00000000E+00
  0.00000000E+00  0.00000000E+00  0.00000000E+00
  0.00000000E+00  0.00000000E+00  0.00000000E+00
  0.00000000E+00  0.00000000E+00  0.00000000E+00
  0.00000000E+00  0.00000000E+00  0.00000000E+00
  0.00000000E+00  0.00000000E+00  0.00000000E+00
  0.00000000E+00  0.00000000E+00  0.00000000E+00
  0.00000000E+00  0.00000000E+00  0.00000000E+00
  0.00000000E+00  0.00000000E+00  0.00000000E+00
  0.00000000E+00  0.00000000E+00  0.00000000E+00
  0.00000000E+00  0.00000000E+00  0.00000000E+00
  0.00000000E+00  0.00000000E+00  0.00000000E+00
  0.00000000E+00  0.00000000E+00  0.00000000E+00
  0.00000000E+00  0.00000000E+00  0.00000000E+00
  0.00000000E+00  0.00000000E+00  0.00000000E+00
  0.00000000E+00  0.00000000E+00  0.00000000E+00
  0.00000000E+00  0.00000000E+00  0.00000000E+00
  0.00000000E+00  0.00000000E+00  0.00000000E+00
  0.00000000E+00  0.00000000E+00  0.00000000E+00
  0.00000000E+00  0.00000000E+00  0.00000000E+00
  0.00000000E+00  0.00000000E+00  0.00000000E+00
  0.00000000E+00  0.00000000E+00  0.00000000E+00
  0.00000000E+00  0.00000000E+00  0.00000000E+00
  0.00000000E+00  0.00000000E+00  0.00000000E+00
  0.00000000E+00  0.00000000E+00  0.00000000E+00
  0.00000000E+00  0.00000000E+00  0.00000000E+00
  0.00000000E+00  0.00000000E+00  0.00000000E+00
  0.00000000E+00  0.00000000E+00  0.00000000E+00
  0.00000000E+00  0.00000000E+00  0.00000000E+00
  0.00000000E+00  0.00000000E+00  0.00000000E+00
  0.00000000E+00  0.00000000E+00  0.00000000E+00
  0.00000000E+00  0.00000000E+00  0.00000000E+00
  0.00000000E+00  0.00000000E+00  0.00000000E+00
  0.00000000E+00  0.00000000E+00  0.00000000E+00
  0.00000000E+00  0.00000000E+00  0.00000000E+00
  0.00000000E+00  0.00000000E+00  0.00000000E+00
  0.00000000E+00  0.00000000E+00  0.00000000E+00
  0.00000000E+00  0.00000000E+00  0.00000000E+00
  0.00000000E+00  0.00000000E+00  0.00000000E+00
  0.00000000E+00  0.00000000E+00  0.00000000E+00
  0.00000000E+00  0.00000000E+00  0.00000000E+00
  0.00000000E+00  0.00000000E+00  0.00000000E+00
  0.00000000E+00  0.00000000E+00  0.00000000E+00
  0.00000000E+00  0.00000000E+00  0.00000000E+00
  0.00000000E+00  0.00000000E+00  0.00000000E+00
  0.00000000E+00  0.00000000E+00  0.00000000E+00
  0.00000000E+00  0.00000000E+00  0.00000000E+00
  0.00000000E+00  0.00000000E+00  0.00000000E+00
  0.00000000E+00  0.00000000E+00  0.00000000E+00
  0.00000000E+00  0.00000000E+00  0.00000000E+00
  0.00000000E+00  0.00000000E+00  0.00000000E+00
  0.00000000E+00  0.00000000E+00  0.00000000E+00
  0.00000000E+00  0.00000000E+00  0.00000000E+00
  0.00000000E+00  0.00000000E+00  0.00000000E+00
  0.00000000E+00  0.00000000E+00  0.00000000E+00
  0.00000000E+00  0.00000000E+00  0.00000000E+00
  0.00000000E+00  0.00000000E+00  0.00000000E+00
  0.00000000E+00  0.00000000E+00  0.00000000E+00
  0.00000000E+00  0.00000000E+00  0.00000000E+00
  0.00000000E+00  0.00000000E+00  0.00000000E+00
  0.00000000E+00  0.00000000E+00  0.00000000E+00
  0.00000000E+00  0.00000000E+00  0.00000000E+00
  0.00000000E+00  0.00000000E+00  0.00000000E+00
  0.00000000E+00  0.00000000E+00  0.00000000E+00
  0.00000000E+00  0.00000000E+00  0.00000000E+00
  0.00000000E+00  0.00000000E+00  0.00000000E+00
  0.00000000E+00  0.00000000E+00  0.00000000E+00
  0.00000000E+00  0.00000000E+00  0.00000000E+00
  0.00000000E+00  0.00000000E+00  0.00000000E+00
  0.00000000E+00  0.00000000E+00  0.00000000E+00
  0.00000000E+00  0.00000000E+00  0.00000000E+00
  0.00000000E+00  0.00000000E+00  0.00000000E+00
  0.00000000E+00  0.00000000E+00  0.00000000E+00
  0.00000000E+00  0.00000000E+00  0.00000000E+00
  0.00000000E+00  0.00000000E+00  0.00000000E+00
  0.00000000E+00  0.00000000E+00  0.00000000E+00
  0.00000000E+00  0.00000000E+00  0.00000000E+00
  0.00000000E+00  0.00000000E+00  0.00000000E+00
  0.00000000E+00  0.00000000E+00  0.00000000E+00
  0.00000000E+00  0.00000000E+00  0.00000000E+00
  0.00000000E+00  0.00000000E+00  0.00000000E+00
  0.00000000E+00  0.00000000E+00  0.00000000E+00
  0.00000000E+00  0.00000000E+00  0.00000000E+00
  0.00000000E+00  0.00000000E+00  0.00000000E+00
  0.00000000E+00  0.00000000E+00  0.00000000E+00
  0.00000000E+00  0.00000000E+00  0.00000000E+00
  0.00000000E+00  0.00000000E+00  0.00000000E+00
  0.00000000E+00  0.00000000E+00  0.00000000E+00
  0.00000000E+00  0.00000000E+00  0.00000000E+00
  0.00000000E+00  0.00000000E+00  0.00000000E+00
  0.00000000E+00  0.00000000E+00  0.00000000E+00
  0.00000000E+00  0.00000000E+00  0.00000000E+00
  0.00000000E+00  0.00000000E+00  0.00000000E+00
  0.00000000E+00  0.00000000E+00  0.00000000E+00
  0.00000000E+00  0.00000000E+00  0.00000000E+00
  0.00000000E+00  0.00000000E+00  0.00000000E+00
  0.00000000E+00  0.00000000E+00  0.00000000E+00
  0.00000000E+00  0.00000000E+00  0.00000000E+00
  0.00000000E+00  0.00000000E+00  0.00000000E+00
  0.00000000E+00  0.00000000E+00  0.00000000E+00
  0.00000000E+00  0.00000000E+00  0.00000000E+00
  0.00000000E+00  0.00000000E+00  0.00000000E+00
  0.00000000E+00  0.00000000E+00  0.00000000E+00
  0.00000000E+00  0.00000000E+00  0.00000000E+00
  0.00000000E+00  0.00000000E+00  0.00000000E+00
  0.00000000E+00  0.00000000E+00  0.00000000E+00
  0.00000000E+00  0.00000000E+00  0.00000000E+00
  0.00000000E+00  0.00000000E+00  0.00000000E+00
  0.00000000E+00  0.00000000E+00  0.00000000E+00
  0.00000000E+00  0.00000000E+00  0.00000000E+00
  0.00000000E+00  0.00000000E+00  0.00000000E+00
  0.00000000E+00  0.00000000E+00  0.00000000E+00
  0.00000000E+00  0.00000000E+00  0.00000000E+00
  0.00000000E+00  0.00000000E+00  0.00000000E+00
  0.00000000E+00  0.00000000E+00  0.00000000E+00
  0.00000000E+00  0.00000000E+00  0.00000000E+00
  0.00000000E+00  0.00000000E+00  0.00000000E+00
  0.00000000E+00  0.00000000E+00  0.00000000E+00
  0.00000000E+00  0.00000000E+00  0.00000000E+00
  0.00000000E+00  0.00000000E+00  0.00000000E+00
  0.00000000E+00  0.00000000E+00  0.00000000E+00
  0.00000000E+00  0.00000000E+00  0.00000000E+00
  0.00000000E+00  0.00000000E+00  0.00000000E+00
  0.00000000E+00  0.00000000E+00  0.00000000E+00
  0.00000000E+00  0.00000000E+00  0.00000000E+00
  0.00000000E+00  0.00000000E+00  0.00000000E+00
  0.00000000E+00  0.00000000E+00  0.00000000E+00
  0.00000000E+00  0.00000000E+00  0.00000000E+00
  0.00000000E+00  0.00000000E+00  0.00000000E+00
  0.00000000E+00  0.00000000E+00  0.00000000E+00
  0.00000000E+00  0.00000000E+00  0.00000000E+00
  0.00000000E+00  0.00000000E+00  0.00000000E+00
  0.00000000E+00  0.00000000E+00  0.00000000E+00
  0.00000000E+00  0.00000000E+00  0.00000000E+00
  0.00000000E+00  0.00000000E+00  0.00000000E+00
  0.00000000E+00  0.00000000E+00  0.00000000E+00
  0.00000000E+00  0.00000000E+00  0.00000000E+00
  0.00000000E+00  0.00000000E+00  0.00000000E+00
  0.00000000E+00  0.00000000E+00  0.00000000E+00
  0.00000000E+00  0.00000000E+00  0.00000000E+00
  0.00000000E+00  0.00000000E+00  0.00000000E+00
  0.00000000E+00  0.00000000E+00  0.00000000E+00
  0.00000000E+00  0.00000000E+00  0.00000000E+00
  0.00000000E+00  0.00000000E+00  0.00000000E+00
  0.00000000E+00  0.00000000E+00  0.00000000E+00
  0.00000000E+00  0.00000000E+00  0.00000000E+00
  0.00000000E+00  0.00000000E+00  0.00000000E+00
  0.00000000E+00  0.00000000E+00  0.00000000E+00
  0.00000000E+00  0.00000000E+00  0.00000000E+00
  0.00000000E+00  0.00000000E+00  0.00000000E+00
  0.00000000E+00  0.00000000E+00  0.00000000E+00
  0.00000000E+00  0.00000000E+00  0.00000000E+00
  0.00000000E+00  0.00000000E+00  0.00000000E+00
  0.00000000E+00  0.00000000E+00  0.00000000E+00
  0.00000000E+00  0.00000000E+00  0.00000000E+00
  0.00000000E+00  0.00000000E+00  0.00000000E+00
  0.00000000E+00  0.00000000E+00  0.00000000E+00
  0.00000000E+00  0.00000000E+00  0.00000000E+00
  0.00000000E+00  0.00000000E+00  0.00000000E+00
  0.00000000E+00  0.00000000E+00  0.00000000E+00
  0.00000000E+00  0.00000000E+00  0.00000000E+00
  0.00000000E+00  0.00000000E+00  0.00000000E+00
  0.00000000E+00  0.00000000E+00  0.00000000E+00
  0.00000000E+00  0.00000000E+00  0.00000000E+00