 O Si Nb  C  O                          
   1.00000000000000     
    20.3096463179830877    0.0000000000000000    0.0000000000000000
     0.0000000000000000   19.8625212307842212    0.0000000000000000
     0.0000000000000000    0.0000000000000000   13.3711533343531652
   O    Si   Nb   C    O 
   192    96     1     1     2
Selective dynamics
Direct
  0.5025909357277101  0.0727798873228238  0.7075249800237629   F   F   F
  0.9974090642722899  0.5727798873228238  0.2075249800237629   F   F   F
  0.5025909357277101  0.4272201126771762  0.7075249800237629   F   F   F
  0.9974346590810739  0.9270754393771573  0.2074650795189970   T   T   T
  0.4973726111002362  0.9273039505855764  0.2925471384509938   T   T   T
  0.0025909357277101  0.4272201126771762  0.7924750199762371   F   F   F
  0.4974090642722899  0.5727798873228238  0.2924750199762371   F   F   F
  0.0025909357277101  0.0727798873228238  0.7924750199762371   F   F   F
  0.3868825154844515  0.0693889629433002  0.7958398315398867   F   F   F
  0.1131174845155485  0.5693889629433002  0.2958398315398867   F   F   F
  0.3868825154844515  0.4306110370566998  0.7958398315398867   F   F   F
  0.1130275548525296  0.9310940594317071  0.2958912786505808   T   T   T
  0.6129587584333729  0.9307948728570457  0.2039122839741721   T   T   T
  0.8868825154844515  0.4306110370566998  0.7041601684601133   F   F   F
  0.6131174845155485  0.5693889629433002  0.2041601684601133   F   F   F
  0.8868825154844515  0.0693889629433002  0.7041601684601133   F   F   F
  0.4023996572529711  0.1395881488352799  0.6299567877606833   F   F   F
  0.0974538295992256  0.6396713852544468  0.1303625455915733   T   T   T
  0.4023996572529711  0.3604118511647201  0.6299567877606833   F   F   F
  0.0978167050180082  0.8605153349168736  0.1300025692030986   T   T   T
  0.5976221489788746  0.8602845588118707  0.3693334650003033   T   T   T
  0.9023996572529711  0.3604118511647201  0.8700432122393167   F   F   F
  0.5976723474591320  0.6396416275951000  0.3699064462476948   T   T   T
  0.9023996572529711  0.1395881488352799  0.8700432122393167   F   F   F
  0.4045031871746829  0.0051825304987858  0.6227513228883907   F   F   F
  0.0954968128253171  0.5051825304987858  0.1227513228883836   F   F   F
  0.4045031871746829  0.4948174695012142  0.6227513228883907   F   F   F
  0.0951807373323324  0.9948598086152421  0.1224975882127937   T   T   T
  0.5956788919756315  0.9946080617594490  0.3774906782348433   T   T   T
  0.9045031871746829  0.4948174695012142  0.8772486771116093   F   F   F
  0.5954968128253171  0.5051825304987858  0.3772486771116164   F   F   F
  0.9045031871746829  0.0051825304987858  0.8772486771116093   F   F   F
  0.3244131055804047  0.0395323330820503  0.9639933782656485   F   F   F
  0.1755868944195953  0.5395323330820503  0.4639933782656414   F   F   F
  0.3244131055804047  0.4604676669179497  0.9639933782656485   F   F   F
  0.1753995589472854  0.9613277107242202  0.4641293475273812   T   T   T
  0.6756187350314471  0.9606086888674872  0.0360401609701353   T   T   T
  0.8244131055804047  0.4604676669179497  0.5360066217343515   F   F   F
  0.6755868944195953  0.5395323330820503  0.0360066217343515   F   F   F
  0.8244131055804047  0.0395323330820503  0.5360066217343515   F   F   F
  0.3252850875572321  0.9536433348227293  0.8085520602517801   T   T   T
  0.1753558411149996  0.4538071248021893  0.3088267361878323   F   F   F
  0.3246441588850004  0.5461928751978107  0.8088267361878323   F   F   F
  0.1753558411149996  0.0461928751978107  0.3088267361878323   F   F   F
  0.6753558411149996  0.0461928751978107  0.1911732638121677   F   F   F
  0.8246441588850004  0.5461928751978107  0.6911732638121677   F   F   F
  0.6753558411149996  0.4538071248021893  0.1911732638121677   F   F   F
  0.8244004147828713  0.9538458980635510  0.6913103619825010   T   T   T
  0.2554253162963604  0.0666022326352760  0.8022081905298890   F   F   F
  0.2445746837036396  0.5666022326352760  0.3022081905298890   F   F   F
  0.2554253162963604  0.4333977673647240  0.8022081905298890   F   F   F
  0.2452144577968630  0.9345845191825634  0.3028073887369812   T   T   T
  0.7444819394124814  0.9333239026052038  0.1979147918683731   T   T   T
  0.7554253162963604  0.4333977673647240  0.6977918094701110   F   F   F
  0.7445746837036396  0.5666022326352760  0.1977918094701110   F   F   F
  0.7554253162963604  0.0666022326352760  0.6977918094701110   F   F   F
  0.2915288497951138  0.1271841775282851  0.1038202525947156   F   F   F
  0.2093273528571961  0.6268230686441766  0.6046898172042077   T   T   T
  0.2915288497951138  0.3728158224717149  0.1038202525947156   F   F   F
  0.2078139905357875  0.8731700895947211  0.6040797185043544   T   T   T
  0.7089737685501961  0.8731141526907934  0.8964352816474357   T   T   T
  0.7915288497951138  0.3728158224717149  0.3961797474052844   F   F   F
  0.7087038077823671  0.6272739954089795  0.8963948971727063   T   T   T
  0.7915288497951138  0.1271841775282851  0.3961797474052844   F   F   F
  0.2010413266345239  0.0428271635220199  0.0290771958813778   F   F   F
  0.2989586733654761  0.5428271635220199  0.5290771958813778   F   F   F
  0.2010413266345239  0.4571728364779801  0.0290771958813778   F   F   F
  0.2987830156774217  0.9569142120026785  0.5298459495782391   T   T   T
  0.7990664696171949  0.9577750981289159  0.9712956153935598   T   T   T
  0.7010413266345239  0.4571728364779801  0.4709228041186222   F   F   F
  0.7989586733654761  0.5428271635220199  0.9709228041186222   F   F   F
  0.7010413266345239  0.0428271635220199  0.4709228041186222   F   F   F
  0.2968895493308423  0.9978563749150382  0.1470275059927886   F   F   F
  0.2031104506691577  0.4978563749150382  0.6470275059927815   F   F   F
  0.2968895493308423  0.5021436250849618  0.1470275059927886   F   F   F
  0.2031104506691577  0.0021436250849618  0.6470275059927815   F   F   F
  0.7031104506691577  0.0021436250849618  0.8529724940072185   F   F   F
  0.7968895493308423  0.5021436250849618  0.3529724940072114   F   F   F
  0.7031104506691577  0.4978563749150382  0.8529724940072185   F   F   F
  0.7968895493308423  0.9978563749150382  0.3529724940072114   F   F   F
  0.1089942560051327  0.1267462740242564  0.0958674480733634   F   F   F
  0.3930212422983443  0.6289335009319463  0.5946439895485941   T   T   T
  0.1089942560051327  0.3732537259757436  0.0958674480733634   F   F   F
  0.3922998203793942  0.8736969017559864  0.5951235360203748   T   T   T
  0.8903731576058626  0.8732424778733798  0.9040270140809057   T   T   T
  0.6089942560051327  0.3732537259757436  0.4041325519266366   F   F   F
  0.8910134379219905  0.6265934186685832  0.9035650713133807   T   T   T
  0.6089942560051327  0.1267462740242564  0.4041325519266366   F   F   F
  0.0831228757301545  0.0463555586530404  0.9432954022258713   F   F   F
  0.4168771242698455  0.5463555586530404  0.4432954022258713   F   F   F
  0.0831228757301545  0.4536444413469596  0.9432954022258713   F   F   F
  0.4166331450972879  0.9538411026387870  0.4426997478125790   T   T   T
  0.9169349076741412  0.9535339388574534  0.0567174546974630   T   T   T
  0.5831228757301545  0.4536444413469596  0.5567045977741287   F   F   F
  0.9168771242698455  0.5463555586530404  0.0567045977741287   F   F   F
  0.5831228757301545  0.0463555586530404  0.5567045977741287   F   F   F
  0.1289595153762306  0.0794086100630622  0.7630589808606629   F   F   F
  0.3710404846237694  0.5794086100630622  0.2630589808606629   F   F   F
  0.1289595153762306  0.4205913899369378  0.7630589808606629   F   F   F
  0.3712742413132497  0.9206924171287157  0.2616052171009786   T   T   T
  0.8710323092352836  0.9206431211704131  0.2367702528514411   T   T   T
  0.6289595153762306  0.4205913899369378  0.7369410191393371   F   F   F
  0.8710404846237694  0.5794086100630622  0.2369410191393371   F   F   F
  0.6289595153762306  0.0794086100630622  0.7369410191393371   F   F   F
  0.0734512693576971  0.9603079039328114  0.7909615856138308   T   T   T
  0.4264236799621770  0.4603034831418356  0.2908788493740602   F   F   F
  0.0735763200378230  0.5396965168581644  0.7908788493740531   F   F   F
  0.4264236799621770  0.0396965168581644  0.2908788493740602   F   F   F
  0.9264236799621770  0.0396965168581644  0.2091211506259398   F   F   F
  0.5735763200378230  0.5396965168581644  0.7091211506259469   F   F   F
  0.9264236799621770  0.4603034831418356  0.2091211506259398   F   F   F
  0.5715468888366531  0.9598605505640021  0.7087647775427677   T   T   T
  0.2164898181671191  0.1361625178643777  0.6465161981987251   F   F   F
  0.2834934969744076  0.6360724211748038  0.1469679935911578   T   T   T
  0.2164898181671191  0.3638374821356223  0.6465161981987251   F   F   F
  0.2827940956309416  0.8645878570629109  0.1454180651009797   T   T   T
  0.7836575499778369  0.8637586051402578  0.3532714555379214   T   T   T
  0.7164898181671191  0.3638374821356223  0.8534838018012749   F   F   F
  0.7831044730190954  0.6361035738935743  0.3534674610555222   T   T   T
  0.7164898181671191  0.1361625178643777  0.8534838018012749   F   F   F
  0.4970257645121787  0.8483330999136480  0.7122022533800300   T   T   T
  0.0041870730047435  0.3531357233755159  0.2140092002379745   F   F   F
  0.4979606713494413  0.6486135131272832  0.7153895081370331   T   T   T
  0.0041870730047435  0.1468642766244841  0.2140092002379745   F   F   F
  0.5041870730047435  0.1468642766244841  0.2859907997620255   F   F   F
  0.9969309572278864  0.6475235701931733  0.7873629007316961   T   T   T
  0.5041870730047435  0.3531357233755159  0.2859907997620255   F   F   F
  0.9958079626433174  0.8531520320522321  0.7870181672001419   T   T   T
  0.3778074325538042  0.8324727208956533  0.7851260206546136   T   T   T
  0.1223394308142645  0.3330694750354013  0.2858074615356969   F   F   F
  0.3795085445692277  0.6653767972290174  0.7894533028569748   T   T   T
  0.1223394308142645  0.1669305249645987  0.2858074615356969   F   F   F
  0.6223394308142645  0.1669305249645987  0.2141925384643031   F   F   F
  0.8795647609343182  0.6661585253462758  0.7130735060458803   T   T   T
  0.6223394308142645  0.3330694750354013  0.2141925384643031   F   F   F
  0.8780232786926909  0.8332773905803776  0.7139784240327571   T   T   T
  0.4201324811339917  0.7485969854678830  0.6431123622162117   T   T   T
  0.0759212098317121  0.2500000000000000  0.1472425182485750   F   F   F
  0.5759212098317121  0.2500000000000000  0.3527574817514250   F   F   F
  0.9235132294598164  0.7499430707540160  0.8527293351704153   T   T   T
  0.3176078693148043  0.8642997576619625  0.9546993086709245   T   T   T
  0.1824716471111429  0.3646363999312143  0.4553082923555465   F   F   F
  0.3171703379664219  0.6346038465706294  0.9567672478131845   T   T   T
  0.1824716471111429  0.1353636000687857  0.4553082923555465   F   F   F
  0.6824716471111429  0.1353636000687857  0.0446917076444535   F   F   F
  0.8175752276107757  0.6350959367096101  0.5445232945642969   T   T   T
  0.6824716471111429  0.3646363999312143  0.0446917076444535   F   F   F
  0.8173910378664685  0.8647953377206291  0.5446414385517113   T   T   T
  0.2479085264543082  0.8466835707434778  0.7894979136625181   T   T   T
  0.2524421241138057  0.3470288878372898  0.2906042087582890   F   F   F
  0.2493304808744607  0.6545951135247214  0.7896811399696335   T   T   T
  0.2524421241138057  0.1529711121627102  0.2906042087582890   F   F   F
  0.7524421241138057  0.1529711121627102  0.2093957912417110   F   F   F
  0.7494472487820614  0.6542876715146193  0.7104253650995110   T   T   T
  0.7524421241138057  0.3470288878372898  0.2093957912417110   F   F   F
  0.7479254094466812  0.8466750373346068  0.7094342712047221   T   T   T
  0.2963851080473083  0.7500899295132581  0.0490349196243799   T   T   T
  0.2047512101703362  0.2500000000000000  0.5502475789369754   F   F   F
  0.7047512101703362  0.2500000000000000  0.9497524210630175   F   F   F
  0.7957242030533394  0.7499193632353803  0.4499037171853065   T   T   T
  0.1961527096392640  0.8316500182511711  0.0054844459419957   T   T   T
  0.3039666124841744  0.3327166449111161  0.5062562090960796   F   F   F
  0.1962236226223852  0.6680865652095654  0.0070440073916219   T   T   T
  0.3039666124841744  0.1672833550888839  0.5062562090960796   F   F   F
  0.8039666124841744  0.1672833550888839  0.9937437909039204   F   F   F
  0.6960919168080425  0.6677148634866935  0.4940079884604943   T   T   T
  0.8039666124841744  0.3327166449111161  0.9937437909039204   F   F   F
  0.6961336999961524  0.8319427005203305  0.4929300178384630   T   T   T
  0.0925967149304388  0.7499938507356277  0.0197436213109256   T   T   T
  0.4068435254241223  0.2500000000000000  0.5199589040338424   F   F   F
  0.9068435254241223  0.2500000000000000  0.9800410959661576   F   F   F
  0.5925914827253047  0.7500385289440062  0.4801784043937610   T   T   T
  0.0810508197313989  0.8698587662048963  0.9348094216852356   T   T   T
  0.4191681511649463  0.3696157380695979  0.4342049483443873   F   F   F
  0.0817837280809654  0.6297185408036364  0.9351956113959383   T   T   T
  0.4191681511649463  0.1303842619304021  0.4342049483443873   F   F   F
  0.9191681511649392  0.1303842619304021  0.0657950516556127   F   F   F
  0.5806321331184969  0.6305474901092792  0.5653166355156204   T   T   T
  0.9191681511649392  0.3696157380695979  0.0657950516556127   F   F   F
  0.5814460194833764  0.8697536606355584  0.5652445718179488   T   T   T
  0.1213683000345426  0.8398161968272723  0.7483180479751838   T   T   T
  0.3785939221413273  0.3399016741142518  0.2475054947775277   F   F   F
  0.1226370907167479  0.6595390335231036  0.7488181709875215   T   T   T
  0.3785939221413273  0.1600983258857482  0.2475054947775277   F   F   F
  0.8785939221413201  0.1600983258857482  0.2524945052224723   F   F   F
  0.6232020055834615  0.6599964610478585  0.7514670091506137   T   T   T
  0.8785939221413201  0.3399016741142518  0.2524945052224723   F   F   F
  0.6219303401220940  0.8403969647324748  0.7526517141194919   T   T   T
  0.2027304412942764  0.7501556549714772  0.6711040076830426   T   T   T
  0.2968133864148328  0.2500000000000000  0.1713179004415224   F   F   F
  0.7968133864148328  0.2500000000000000  0.3286820995584776   F   F   F
  0.7031790208018924  0.7504207022419171  0.8298439346127838   T   T   T
  0.4240099490616913  0.0712238689892644  0.6879805273312769   F   F   F
  0.0759900509383087  0.5712238689892644  0.1879805273312769   F   F   F
  0.4240099490616913  0.4287761310107356  0.6879805273312769   F   F   F
  0.0761561245977054  0.9287369316048011  0.1882079858782967   T   T   T
  0.5757824374693100  0.9288785091612324  0.3117207654460137   T   T   T
  0.9240099490616913  0.4287761310107356  0.8120194726687231   F   F   F
  0.5759900509383087  0.5712238689892644  0.3120194726687231   F   F   F
  0.9240099490616913  0.0712238689892644  0.8120194726687231   F   F   F
  0.3227198167376812  0.0323507114762833  0.8432574132120010   F   F   F
  0.1772801832623188  0.5323507114762833  0.3432574132120010   F   F   F
  0.3227198167376812  0.4676492885237167  0.8432574132120010   F   F   F
  0.1774576616243063  0.9674916911759528  0.3432859911039831   T   T   T
  0.6772699958558839  0.9676900275587750  0.1568220232035400   T   T   T
  0.8227198167376812  0.4676492885237167  0.6567425867879990   F   F   F
  0.6772801832623188  0.5323507114762833  0.1567425867879990   F   F   F
  0.8227198167376812  0.0323507114762833  0.6567425867879990   F   F   F
  0.2779386767015382  0.0519583657721796  0.0611307184073340   F   F   F
  0.2220613232984618  0.5519583657721796  0.5611307184073340   F   F   F
  0.2779386767015382  0.4480416342278204  0.0611307184073340   F   F   F
  0.2215441086396886  0.9479055674539338  0.5608912546632204   T   T   T
  0.7223254657964453  0.9483942458254351  0.9391783124221074   T   T   T
  0.7779386767015382  0.4480416342278204  0.4388692815926660   F   F   F
  0.7220613232984618  0.5519583657721796  0.9388692815926660   F   F   F
  0.7779386767015382  0.0519583657721796  0.4388692815926660   F   F   F
  0.1225104503909904  0.0527779080613016  0.0479940299588080   F   F   F
  0.3774895496090096  0.5527779080612945  0.5479940299588080   F   F   F
  0.1225104503909904  0.4472220919386984  0.0479940299588080   F   F   F
  0.3771767602481322  0.9478945216730663  0.5470031419467584   T   T   T
  0.8775415488689541  0.9472796526066264  0.9521376963257404   T   T   T
  0.6225104503909904  0.4472220919386984  0.4520059700411920   F   F   F
  0.8774895496090096  0.5527779080612945  0.9520059700411920   F   F   F
  0.6225104503909904  0.0527779080613016  0.4520059700411920   F   F   F
  0.0722297752641694  0.0390952680378902  0.8235403254031510   F   F   F
  0.4277702247358306  0.5390952680378902  0.3235403254031510   F   F   F
  0.0722297752641694  0.4609047319621098  0.8235403254031510   F   F   F
  0.4273970297851984  0.9606852051746376  0.3226387741977280   T   T   T
  0.9279766434505072  0.9608489132223206  0.1764753300470707   T   T   T
  0.5722297752641694  0.4609047319621098  0.6764596745968490   F   F   F
  0.9277702247358306  0.5390952680378902  0.1764596745968490   F   F   F
  0.5722297752641694  0.0390952680378902  0.6764596745968490   F   F   F
  0.2011043077742869  0.0703822647950858  0.7135284737427909   F   F   F
  0.2988956922257131  0.5703822647950858  0.2135284737427909   F   F   F
  0.2011043077742869  0.4296177352049142  0.7135284737427909   F   F   F
  0.2986785596761563  0.9293607793227173  0.2136547322075091   T   T   T
  0.7990129508852868  0.9296487855507148  0.2863621555093120   T   T   T
  0.7011043077742869  0.4296177352049142  0.7864715262572091   F   F   F
  0.7988956922257131  0.5703822647950858  0.2864715262572091   F   F   F
  0.7011043077742869  0.0703822647950858  0.7864715262572091   F   F   F
  0.4220843439066621  0.8284352140081402  0.6847864920728972   T   T   T
  0.0776147133579599  0.3277153649932174  0.1851848138450478   F   F   F
  0.4240325189501683  0.6714208550914412  0.6907480700788624   T   T   T
  0.0776147133579599  0.1722846350067826  0.1851848138450478   F   F   F
  0.5776147133579599  0.1722846350067826  0.3148151861549522   F   F   F
  0.9231901922431023  0.6722117606425078  0.8148866367419570   T   T   T
  0.5776147133579599  0.3277153649932174  0.3148151861549522   F   F   F
  0.9223742521375302  0.8277441361019870  0.8151250317502142   T   T   T
  0.3166048682266381  0.8744187020749467  0.8346359494335015   T   T   T
  0.1830680121786585  0.3744867008663704  0.3347839836351412   F   F   F
  0.3165343670229411  0.6251372295679111  0.8368657161922620   T   T   T
  0.1830680121786585  0.1255132991336296  0.3347839836351412   F   F   F
  0.6830680121786585  0.1255132991336296  0.1652160163648588   F   F   F
  0.8180958246511491  0.6255772228516533  0.6650775636179982   T   T   T
  0.6830680121786585  0.3744867008663704  0.1652160163648588   F   F   F
  0.8172141469487583  0.8745427783826920  0.6651836938986171   T   T   T
  0.2727574507278346  0.8275773519200001  0.0399511236306092   T   T   T
  0.2273307924942145  0.3277299682844301  0.5397963552221228   F   F   F
  0.2727232634416395  0.6727707819563702  0.0413301882233280   T   T   T
  0.2273307924942145  0.1722700317155699  0.5397963552221228   F   F   F
  0.7273307924942145  0.1722700317155699  0.9602036447778772   F   F   F
  0.7729076457331475  0.6723002341715141  0.4601956655695725   T   T   T
  0.7273307924942145  0.3277299682844301  0.9602036447778772   F   F   F
  0.7729874545845613  0.8276561049819924  0.4599049084034565   T   T   T
  0.1172645505654146  0.8278064825426882  0.0232741579685206   T   T   T
  0.3829046392724536  0.3279865241180246  0.5228273843902258   F   F   F
  0.1172695659709814  0.6723235947310463  0.0237748602362284   T   T   T
  0.3829046392724536  0.1720134758819754  0.5228273843902258   F   F   F
  0.8829046392724536  0.1720134758819754  0.9771726156097742   F   F   F
  0.6172944957928937  0.6723452660170816  0.4765670494221849   T   T   T
  0.8829046392724536  0.3279865241180246  0.9771726156097742   F   F   F
  0.6172372899865760  0.8279193735229280  0.4761894366681140   T   T   T
  0.0684633549250973  0.8806004029270668  0.8157748476121367   T   T   T
  0.4316422255872467  0.3805306503245163  0.3150522314059216   F   F   F
  0.0692505125742941  0.6193688425951146  0.8161358842673773   T   T   T
  0.4316422255872467  0.1194693496754837  0.3150522314059216   F   F   F
  0.9316422255872467  0.1194693496754837  0.1849477685940784   F   F   F
  0.5702900981131824  0.6194274054341110  0.6846140329622573   T   T   T
  0.9316422255872467  0.3805306503245163  0.1849477685940784   F   F   F
  0.5687317823170660  0.8799955648876174  0.6842916673967758   T   T   T
  0.1946055166001497  0.8281955122921116  0.7028483025341583   T   T   T
  0.3049811923033445  0.3281471210548332  0.2034825387585641   F   F   F
  0.1955408626235382  0.6722808895586744  0.7031274320351055   T   T   T
  0.3049811923033445  0.1718528789451668  0.2034825387585641   F   F   F
  0.8049811923033445  0.1718528789451668  0.2965174612414359   F   F   F
  0.6964939898270575  0.6723949168912602  0.7970198762348408   T   T   T
  0.8049811923033445  0.3281471210548332  0.2965174612414359   F   F   F
  0.6955547591530061  0.8285164731829848  0.7969175085120035   T   T   T
  0.3686298376969850  0.7229423850699177  0.4830337990810652   T   T   T
  0.2875269014671874  0.7567174274453070  0.4024601360342230   T   T   T
  0.2324830863783596  0.7738534828619658  0.3768168181432311   T   T   T
  0.3448424299749697  0.7564935583164701  0.3472955693714689   T   T   T
 
  0.00000000E+00  0.00000000E+00  0.00000000E+00
  0.00000000E+00  0.00000000E+00  0.00000000E+00
  0.00000000E+00  0.00000000E+00  0.00000000E+00
  0.00000000E+00  0.00000000E+00  0.00000000E+00
  0.00000000E+00  0.00000000E+00  0.00000000E+00
  0.00000000E+00  0.00000000E+00  0.00000000E+00
  0.00000000E+00  0.00000000E+00  0.00000000E+00
  0.00000000E+00  0.00000000E+00  0.00000000E+00
  0.00000000E+00  0.00000000E+00  0.00000000E+00
  0.00000000E+00  0.00000000E+00  0.00000000E+00
  0.00000000E+00  0.00000000E+00  0.00000000E+00
  0.00000000E+00  0.00000000E+00  0.00000000E+00
  0.00000000E+00  0.00000000E+00  0.00000000E+00
  0.00000000E+00  0.00000000E+00  0.00000000E+00
  0.00000000E+00  0.00000000E+00  0.00000000E+00
  0.00000000E+00  0.00000000E+00  0.00000000E+00
  0.00000000E+00  0.00000000E+00  0.00000000E+00
  0.00000000E+00  0.00000000E+00  0.00000000E+00
  0.00000000E+00  0.00000000E+00  0.00000000E+00
  0.00000000E+00  0.00000000E+00  0.00000000E+00
  0.00000000E+00  0.00000000E+00  0.00000000E+00
  0.00000000E+00  0.00000000E+00  0.00000000E+00
  0.00000000E+00  0.00000000E+00  0.00000000E+00
  0.00000000E+00  0.00000000E+00  0.00000000E+00
  0.00000000E+00  0.00000000E+00  0.00000000E+00
  0.00000000E+00  0.00000000E+00  0.00000000E+00
  0.00000000E+00  0.00000000E+00  0.00000000E+00
  0.00000000E+00  0.00000000E+00  0.00000000E+00
  0.00000000E+00  0.00000000E+00  0.00000000E+00
  0.00000000E+00  0.00000000E+00  0.00000000E+00
  0.00000000E+00  0.00000000E+00  0.00000000E+00
  0.00000000E+00  0.00000000E+00  0.00000000E+00
  0.00000000E+00  0.00000000E+00  0.00000000E+00
  0.00000000E+00  0.00000000E+00  0.00000000E+00
  0.00000000E+00  0.00000000E+00  0.00000000E+00
  0.00000000E+00  0.00000000E+00  0.00000000E+00
  0.00000000E+00  0.00000000E+00  0.00000000E+00
  0.00000000E+00  0.00000000E+00  0.00000000E+00
  0.00000000E+00  0.00000000E+00  0.00000000E+00
  0.00000000E+00  0.00000000E+00  0.00000000E+00
  0.00000000E+00  0.00000000E+00  0.00000000E+00
  0.00000000E+00  0.00000000E+00  0.00000000E+00
  0.00000000E+00  0.00000000E+00  0.00000000E+00
  0.00000000E+00  0.00000000E+00  0.00000000E+00
  0.00000000E+00  0.00000000E+00  0.00000000E+00
  0.00000000E+00  0.00000000E+00  0.00000000E+00
  0.00000000E+00  0.00000000E+00  0.00000000E+00
  0.00000000E+00  0.00000000E+00  0.00000000E+00
  0.00000000E+00  0.00000000E+00  0.00000000E+00
  0.00000000E+00  0.00000000E+00  0.00000000E+00
  0.00000000E+00  0.00000000E+00  0.00000000E+00
  0.00000000E+00  0.00000000E+00  0.00000000E+00
  0.00000000E+00  0.00000000E+00  0.00000000E+00
  0.00000000E+00  0.00000000E+00  0.00000000E+00
  0.00000000E+00  0.00000000E+00  0.00000000E+00
  0.00000000E+00  0.00000000E+00  0.00000000E+00
  0.00000000E+00  0.00000000E+00  0.00000000E+00
  0.00000000E+00  0.00000000E+00  0.00000000E+00
  0.00000000E+00  0.00000000E+00  0.00000000E+00
  0.00000000E+00  0.00000000E+00  0.00000000E+00
  0.00000000E+00  0.00000000E+00  0.00000000E+00
  0.00000000E+00  0.00000000E+00  0.00000000E+00
  0.00000000E+00  0.00000000E+00  0.00000000E+00
  0.00000000E+00  0.00000000E+00  0.00000000E+00
  0.00000000E+00  0.00000000E+00  0.00000000E+00
  0.00000000E+00  0.00000000E+00  0.00000000E+00
  0.00000000E+00  0.00000000E+00  0.00000000E+00
  0.00000000E+00  0.00000000E+00  0.00000000E+00
  0.00000000E+00  0.00000000E+00  0.00000000E+00
  0.00000000E+00  0.00000000E+00  0.00000000E+00
  0.00000000E+00  0.00000000E+00  0.00000000E+00
  0.00000000E+00  0.00000000E+00  0.00000000E+00
  0.00000000E+00  0.00000000E+00  0.00000000E+00
  0.00000000E+00  0.00000000E+00  0.00000000E+00
  0.00000000E+00  0.00000000E+00  0.00000000E+00
  0.00000000E+00  0.00000000E+00  0.00000000E+00
  0.00000000E+00  0.00000000E+00  0.00000000E+00
  0.00000000E+00  0.00000000E+00  0.00000000E+00
  0.00000000E+00  0.00000000E+00  0.00000000E+00
  0.00000000E+00  0.00000000E+00  0.00000000E+00
  0.00000000E+00  0.00000000E+00  0.00000000E+00
  0.00000000E+00  0.00000000E+00  0.00000000E+00
  0.00000000E+00  0.00000000E+00  0.00000000E+00
  0.00000000E+00  0.00000000E+00  0.00000000E+00
  0.00000000E+00  0.00000000E+00  0.00000000E+00
  0.00000000E+00  0.00000000E+00  0.00000000E+00
  0.00000000E+00  0.00000000E+00  0.00000000E+00
  0.00000000E+00  0.00000000E+00  0.00000000E+00
  0.00000000E+00  0.00000000E+00  0.00000000E+00
  0.00000000E+00  0.00000000E+00  0.00000000E+00
  0.00000000E+00  0.00000000E+00  0.00000000E+00
  0.00000000E+00  0.00000000E+00  0.00000000E+00
  0.00000000E+00  0.00000000E+00  0.00000000E+00
  0.00000000E+00  0.00000000E+00  0.00000000E+00
  0.00000000E+00  0.00000000E+00  0.00000000E+00
  0.00000000E+00  0.00000000E+00  0.00000000E+00
  0.00000000E+00  0.00000000E+00  0.00000000E+00
  0.00000000E+00  0.00000000E+00  0.00000000E+00
  0.00000000E+00  0.00000000E+00  0.00000000E+00
  0.00000000E+00  0.00000000E+00  0.00000000E+00
  0.00000000E+00  0.00000000E+00  0.00000000E+00
  0.00000000E+00  0.00000000E+00  0.00000000E+00
  0.00000000E+00  0.00000000E+00  0.00000000E+00
  0.00000000E+00  0.00000000E+00  0.00000000E+00
  0.00000000E+00  0.00000000E+00  0.00000000E+00
  0.00000000E+00  0.00000000E+00  0.00000000E+00
  0.00000000E+00  0.00000000E+00  0.00000000E+00
  0.00000000E+00  0.00000000E+00  0.00000000E+00
  0.00000000E+00  0.00000000E+00  0.00000000E+00
  0.00000000E+00  0.00000000E+00  0.00000000E+00
  0.00000000E+00  0.00000000E+00  0.00000000E+00
  0.00000000E+00  0.00000000E+00  0.00000000E+00
  0.00000000E+00  0.00000000E+00  0.00000000E+00
  0.00000000E+00  0.00000000E+00  0.00000000E+00
  0.00000000E+00  0.00000000E+00  0.00000000E+00
  0.00000000E+00  0.00000000E+00  0.00000000E+00
  0.00000000E+00  0.00000000E+00  0.00000000E+00
  0.00000000E+00  0.00000000E+00  0.00000000E+00
  0.00000000E+00  0.00000000E+00  0.00000000E+00
  0.00000000E+00  0.00000000E+00  0.00000000E+00
  0.00000000E+00  0.00000000E+00  0.00000000E+00
  0.00000000E+00  0.00000000E+00  0.00000000E+00
  0.00000000E+00  0.00000000E+00  0.00000000E+00
  0.00000000E+00  0.00000000E+00  0.00000000E+00
  0.00000000E+00  0.00000000E+00  0.00000000E+00
  0.00000000E+00  0.00000000E+00  0.00000000E+00
  0.00000000E+00  0.00000000E+00  0.00000000E+00
  0.00000000E+00  0.00000000E+00  0.00000000E+00
  0.00000000E+00  0.00000000E+00  0.00000000E+00
  0.00000000E+00  0.00000000E+00  0.00000000E+00
  0.00000000E+00  0.00000000E+00  0.00000000E+00
  0.00000000E+00  0.00000000E+00  0.00000000E+00
  0.00000000E+00  0.00000000E+00  0.00000000E+00
  0.00000000E+00  0.00000000E+00  0.00000000E+00
  0.00000000E+00  0.00000000E+00  0.00000000E+00
  0.00000000E+00  0.00000000E+00  0.00000000E+00
  0.00000000E+00  0.00000000E+00  0.00000000E+00
  0.00000000E+00  0.00000000E+00  0.00000000E+00
  0.00000000E+00  0.00000000E+00  0.00000000E+00
  0.00000000E+00  0.00000000E+00  0.00000000E+00
  0.00000000E+00  0.00000000E+00  0.00000000E+00
  0.00000000E+00  0.00000000E+00  0.00000000E+00
  0.00000000E+00  0.00000000E+00  0.00000000E+00
  0.00000000E+00  0.00000000E+00  0.00000000E+00
  0.00000000E+00  0.00000000E+00  0.00000000E+00
  0.00000000E+00  0.00000000E+00  0.00000000E+00
  0.00000000E+00  0.00000000E+00  0.00000000E+00
  0.00000000E+00  0.00000000E+00  0.00000000E+00
  0.00000000E+00  0.00000000E+00  0.00000000E+00
  0.00000000E+00  0.00000000E+00  0.00000000E+00
  0.00000000E+00  0.00000000E+00  0.00000000E+00
  0.00000000E+00  0.00000000E+00  0.00000000E+00
  0.00000000E+00  0.00000000E+00  0.00000000E+00
  0.00000000E+00  0.00000000E+00  0.00000000E+00
  0.00000000E+00  0.00000000E+00  0.00000000E+00
  0.00000000E+00  0.00000000E+00  0.00000000E+00
  0.00000000E+00  0.00000000E+00  0.00000000E+00
  0.00000000E+00  0.00000000E+00  0.00000000E+00
  0.00000000E+00  0.00000000E+00  0.00000000E+00
  0.00000000E+00  0.00000000E+00  0.00000000E+00
  0.00000000E+00  0.00000000E+00  0.00000000E+00
  0.00000000E+00  0.00000000E+00  0.00000000E+00
  0.00000000E+00  0.00000000E+00  0.00000000E+00
  0.00000000E+00  0.00000000E+00  0.00000000E+00
  0.00000000E+00  0.00000000E+00  0.00000000E+00
  0.00000000E+00  0.00000000E+00  0.00000000E+00
  0.00000000E+00  0.00000000E+00  0.00000000E+00
  0.00000000E+00  0.00000000E+00  0.00000000E+00
  0.00000000E+00  0.00000000E+00  0.00000000E+00