 O Si  Y  H 
 1.0000000000000000
    20.3096463179830877    0.0000000000000000    0.0000000000000000
     0.0000000000000000   19.8625212307842212    0.0000000000000000
     0.0000000000000000    0.0000000000000000   13.3711533343531652
 O Si  Y  H 
 192  96   1   2
Selective dynamics
Cartesian
 10.2074441472539608  1.4455920571236711  9.4604249957828941   F   F   F
 20.2570253297206690 11.3768526725157813  2.7748483286063115   F   F   F
 10.2074441472539608  8.4856685582684399  9.4604249957828941   F   F   F
 20.2565522776934444 18.4239373565238012  2.7925484009812211   T   T   T
 10.0923928198144299 18.4188129667051399  3.9230910564301213   T   T   T
  0.0526209882624183  8.4856685582684399 10.5963050057468546   F   F   F
 10.1022021707291270 11.3768526725157813  3.9107283385702711   F   F   F
  0.0526209882624183  1.4455920571236711 10.5963050057468546   F   F   F
  7.8574470561008258  1.3782397496433998 10.6412964171056164   F   F   F
  2.2973761028907185 11.3095003650355110  3.9557197499290346   F   F   F
  7.8574470561008258  8.5530208657487101 10.6412964171056164   F   F   F
  2.3053819255957699 18.4855868760844260  3.9600895185239677   T   T   T
 12.4413350485239906 18.4916979490251556  2.7286057198469327   T   T   T
 18.0122702150923679  8.5530208657487101  9.4154335844241306   F   F   F
 12.4521992618822619 11.3095003650355110  2.7298569172475480   F   F   F
 18.0122702150923679  1.3782397496433998  9.4154335844241306   F   F   F
  8.1725947172854614  2.7725725698066146  8.4232488031646700   F   F   F
  1.9590054686694134 12.6995520272403741  1.7225039742100783   T   T   T
  8.1725947172854614  7.1586880455854951  8.4232488031646700   F   F   F
  1.9601911742012086 17.0975993670151709  1.7307238369922091   T   T   T
 12.1272134557145552 17.0891370408848928  4.9443293888456799   T   T   T
 18.3274178762770035  7.1586880455854951 11.6334811983650788   F   F   F
 12.1367882806687053 12.7072875910587602  4.9452049124079673   T   T   T
 18.3274178762770035  2.7725725698066146 11.6334811983650788   F   F   F
  8.2153166660147221  0.1029381220613197  8.3269034275119509   F   F   F
  1.9395064929768218 10.0341987374534298  1.6413267603352724   F   F   F
  8.2153166660147221  9.8283224933307913  8.3269034275119509   F   F   F
  1.9343002813410068 19.7645001134032441  1.6452732437698965   T   T   T
 12.0977604535821328 19.7522049615559361  5.0519589321989011   T   T   T
 18.3701398250062660  9.8283224933307913 11.7298265740177978   F   F   F
 12.0943296519683656 10.0341987374534298  5.0442499068413102   F   F   F
 18.3701398250062660  0.1029381220613197 11.7298265740177978   F   F   F
  6.5887154352565247  0.7852118051446575 12.8897032740910973   F   F   F
  3.5661077237350187 10.7164724205367676  6.2041266069144205   F   F   F
  6.5887154352565247  9.1460488102474535 12.8897032740910973   F   F   F
  3.6178435123934887 19.0964932049884801  6.1989697658687115   T   T   T
 13.7126208483096050 19.0773056831436421  0.4772954058920231   T   T   T
 16.7435385942480686  9.1460488102474535  7.1670267274386505   F   F   F
 13.7209308827265630 10.7164724205367676  0.4814500602620672   F   F   F
 16.7435385942480686  0.7852118051446575  7.1670267274386505   F   F   F
  6.5865342500542301 18.9498900721186310 10.8103933236998753   T   T   T
  3.5614151128380791  9.0137536510646292  4.1293696433153393   F   F   F
  6.5934080461534652 10.8487675797195919 10.8149463104919210   F   F   F
  3.5614151128380791  0.9175069643274809  4.1293696433153393   F   F   F
 13.7162382718296225  0.9175069643274809  2.5562070238612433   F   F   F
 16.7482312051450108 10.8487675797195919  9.2417836910378259   F   F   F
 13.7162382718296225  9.0137536510646292  2.5562070238612433   F   F   F
 16.7864494007948970 18.9534621614715491  9.2457176107118233   T   T   T
  5.1875978346380416  1.3228882597357992 10.7264487216491453   F   F   F
  4.9672253243535023 11.2541488751279086  4.0408720544725618   F   F   F
  5.1875978346380416  8.6083723556563125 10.7264487216491453   F   F   F
  4.9717436791610830 18.5278836634083852  4.0238926631470067   T   T   T
 15.1135940323715463 18.5410354273258626  2.6414416362916024   T   T   T
 15.3424209936295863  8.6083723556563125  9.3302812798806034   F   F   F
 15.1220484833450453 11.2541488751279086  2.6447046127040204   F   F   F
 15.3424209936295863  1.3228882597357992  9.3302812798806034   F   F   F
  5.9208478308271770  2.5261984263753923  1.3881965166552193   F   F   F
  4.2206215168794907 12.4575271102283374  8.0705489526630867   T   T   T
  5.9208478308271770  7.4050621890167188  1.3881965166552193   F   F   F
  4.1105411011261985 17.3251157236617743  8.0671170346235694   T   T   T
 14.4039013085209238 17.3283764280938826 11.9909236361736689   T   T   T
 16.0756709898187218  7.4050621890167188  5.2973801505213629   F   F   F
 14.3829535058502653 12.4646163236161858 11.9849437135839079   T   T   T
 16.0756709898187218  2.5261984263753923  5.2973801505213629   F   F   F
  4.0830782392452933  0.8506554447103878  0.3887956446629249   F   F   F
  6.0717449197462505 10.7819160601024979  7.0743723118395074   F   F   F
  4.0830782392452933  9.0806051706817232  0.3887956446629249   F   F   F
  6.0955523771729645 18.8682745254162718  7.1737805405418316   T   T   T
 16.2241869200132705 19.0309997575379697 12.9910101966815485   T   T   T
 14.2379013982368381  9.0806051706817232  6.2967810225136578   F   F   F
 16.2265680787377953 10.7819160601024979 12.9823576896902395   F   F   F
 14.2379013982368381  0.8506554447103878  6.2967810225136578   F   F   F
  6.0297217424147993 19.8199434320233259  1.9659273269971054   F   F   F
  4.1251014165767446  9.8886828166312153  8.6515039941735932   F   F   F
  6.0297217424147993  9.9738384141530059  1.9659273269971054   F   F   F
  4.1251014165767446  0.0425777987608954  8.6515039941735932   F   F   F
 14.2799245755682875  0.0425777987608954 11.4052260073561555   F   F   F
 16.1845449014063441  9.9738384141530059  4.7196493401794779   F   F   F
 14.2799245755682875  9.8886828166312153 11.4052260073561555   F   F   F
 16.1845449014063441 19.8199434320233259  4.7196493401794779   F   F   F
  2.2136347901559494  2.5175005587295871  1.2818583479620820   F   F   F
  8.0407527766292919 12.3960744664257909  7.9957396273025774   T   T   T
  2.2136347901559494  7.4137600566625226  1.2818583479620820   F   F   F
  8.1956243995502742 17.3751772540716694  7.9839215406317035   T   T   T
 18.0623224451358766 17.3375569213008518 12.1143038996769334   T   T   T
 12.3684579491474924  7.4137600566625226  5.4037183192145006   F   F   F
 18.0880427994296404 12.4569805302934231 12.1101409414421752   T   T   T
 12.3684579491474924  2.5175005587295871  5.4037183192145006   F   F   F
  1.6881962070130982  0.9207382679108781 12.6129474627524694   F   F   F
  8.4666269519784461 10.8519988833029899  5.9273707955758868   F   F   F
  1.6881962070130982  9.0105223474812313 12.6129474627524694   F   F   F
  8.4239445931474872 18.9612930350191249  5.9133411275607886   T   T   T
 18.6281372134951688 18.9469140529151936  0.7592854977604572   T   T   T
 11.8430193660046434  9.0105223474812313  7.4437825387772794   F   F   F
 18.6214501109699881 10.8519988833029899  0.7582058716006961   F   F   F
 11.8430193660046434  0.9207382679108781  7.4437825387772794   F   F   F
  2.6191221466297452  1.5772552032846385 10.2029786362431807   F   F   F
  7.5357010123617982 11.5085158186767487  3.5174019690665985   F   F   F
  2.6191221466297452  8.3540054121074725 10.2029786362431807   F   F   F
  7.5374879624017428 18.2754121908015392  3.4915158376316380   T   T   T
 17.6858502045745780 18.2880765981339977  3.1584514618923807   T   T   T
 12.7739453056212895  8.3540054121074725  9.8537513652865663   F   F   F
 17.6905241713533421 11.5085158186767487  3.1681746981099845   F   F   F
 12.7739453056212895  1.5772552032846385  9.8537513652865663   F   F   F
  1.4932234467382282 19.0709741727998789 10.5801075640391513   T   T   T
  8.6605141216446260  9.1427877065086367  3.8893856967007774   F   F   F
  1.4943090373469170 10.7197335242755862 10.5749623638772636   F   F   F
  8.6605141216446260  0.7884729088834742  3.8893856967007774   F   F   F
 18.8153372806361716  0.7884729088834742  2.7961909704758057   F   F   F
 11.6491321963384618 10.7197335242755862  9.4817676376524833   F   F   F
 18.8153372806361716  9.1427877065086367  2.7961909704758057   F   F   F
 11.6182459660685442 19.0554664380187333  9.4938746782283587   T   T   T
  4.3968316384186590  2.7045309019182375  8.6446672192582152   F   F   F
  5.7505265451678067 12.6247665286744510  1.9446037889937831   T   T   T
  4.3968316384186590  7.2267297134738726  8.6446672192582152   F   F   F
  5.7491405742447528 17.1643072786100284  1.9178526506623061   T   T   T
 15.9190181953079755 17.1624714151589473  4.7166208551299533   T   T   T
 14.5516547974102028  7.2267297134738726 11.4120627822715335   F   F   F
 15.9200349978417464 12.6379534338829149  4.7246371665770805   T   T   T
 14.5516547974102028  2.7045309019182375 11.4120627822715335   F   F   F
 10.1549900304505805 16.7170375506728810  9.5765797925737566   T   T   T
  0.0850379718339152  7.0141658028945288  2.8615498313442469   F   F   F
 10.1212304028965665 13.0290016812117386  9.5354371723819522   T   T   T
  0.0850379718339152  2.9170948124975822  2.8615498313442469   F   F   F
 10.2398611308254601  2.9170948124975822  3.8240268358323357   F   F   F
 20.1534864180735944 12.7977472784720980 10.4536950576883658   T   T   T
 10.2398611308254601  7.0141658028945288  3.8240268358323357   F   F   F
 20.1332739827830132 17.0161122473745827 10.4680911651549131   T   T   T
  7.5525423332742987 16.5371073706890179 10.3799772621740907   T   T   T
  2.4846705705810739  6.6155995192168131  3.8215753922960478   F   F   F
  7.5856277187535053 13.2600204655970284 10.4251460142364358   T   T   T
  2.4846705705810739  3.3156610961752970  3.8215753922960478   F   F   F
 12.6394937295726173  3.3156610961752970  2.8640012748805352   F   F   F
 17.6772303062696139 13.2875720986096546  9.6177887261248518   T   T   T
 12.6394937295726173  6.6155995192168131  2.8640012748805352   F   F   F
 17.6745462234343087 16.5008696487486652  9.6136944672356464   T   T   T
  8.3424716832943329 14.8786891084445951  8.2075052619689721   T   T   T
  1.5419329197154532  4.9656303076960553  1.9688022888379906   F   F   F
 11.6967560787069971  4.9656303076960553  4.7167743783385925   F   F   F
 18.7945048410548985 14.8984572278052312 11.3919005199817445   T   T   T
  6.4252506544742625 17.1413174765872185 12.7213862603447083   T   T   T
  3.7059346158871325  7.2425982351504699  6.0879969914885113   F   F   F
  6.4351284424103703 12.6311625848987337 12.7498232472984458   T   T   T
  3.7059346158871325  2.6886623802416403  6.0879969914885113   F   F   F
 13.8607577748786781  2.6886623802416403  0.5975796756880712   F   F   F
 16.5768234768323772 12.6285089846886507  7.2954337321213458   T   T   T
 13.8607577748786781  7.2425982351504699  0.5975796756880712   F   F   F
 16.5768646039413206 17.1849488701746225  7.2889524950646027   T   T   T
  4.9255465135700556 16.8911952900330391 10.5658951353934736   T   T   T
  5.1270102565117828  6.8928686523636049  3.8857134349154596   F   F   F
  4.9517190499502233 12.9267456275098063 10.5876736128071656   T   T   T
  5.1270102565117828  3.0383919630285057  3.8857134349154596   F   F   F
 15.2818334155033284  3.0383919630285057  2.7998632322611234   F   F   F
 15.0250772353874940 12.8025343604393900  9.4278077269043141   T   T   T
 15.2818334155033284  6.8928686523636049  2.7998632322611234   F   F   F
 15.0368800794638631 17.0120101504666366  9.4260290572932437   T   T   T
  5.9082249807022693 14.8924043619348829  0.6622761103230723   T   T   T
  4.1584246617385503  4.9656303076960553  7.3574447498228954   F   F   F
 14.3132478207300924  4.9656303076960553 12.6992852517067583   F   F   F
 16.2246296852378045 14.9042612659098861  6.0013834433604663   T   T   T
  3.9464335307020550 16.5974464829899766  0.0509096421488729   T   T   T
  6.1734543920290044  6.6085914233823377  6.7692293982920377   F   F   F
  3.9545554336983479 13.1899865179669789  0.0629007184635690   T   T   T
  6.1734543920290044  3.3226691920097720  6.7692293982920377   F   F   F
 16.3282775510205482  3.3226691920097720 13.2875006032377101   F   F   F
 14.1469209985451556 13.3385550503343460  6.5595930987542399   T   T   T
 16.3282775510205482  6.6085914233823377 13.2875006032377101   F   F   F
 14.1454041462280706 16.4669772660233491  6.5546959334667312   T   T   T
  1.9053796304355974 14.8982614981171810  0.2770626582407904   T   T   T
  8.2628481081252829  4.9656303076960553  6.9524502333987286   F   F   F
 18.4176712671168268  4.9656303076960553 13.1042797681310184   F   F   F
 12.0010375755889012 14.8981040042818336  6.4414180003543269   T   T   T
  1.5525555955228860 17.2427784202668271 12.4843931961855770   T   T   T
  8.5131568979229311  7.3415004446393679  5.8058209428476975   F   F   F
  1.5750126214169444 12.5647982910711438 12.4632745988733493   T   T   T
  8.5131568979229311  2.5897601707527422  5.8058209428476975   F   F   F
 18.6679800569143310  2.5897601707527422  0.8797557243288845   F   F   F
 11.8688209032574523 12.5080151586180239  7.5657955963316814   T   T   T
 18.6679800569143310  7.3415004446393679  0.8797557243288845   F   F   F
 11.8697777731734853 17.2765401082773487  7.5766167555031618   T   T   T
  2.3709142919449406 16.6359604956228964  9.9946555051406190   T   T   T
  7.6891086568283837  6.7513042184734262  3.3094339217652693   F   F   F
  2.4022154704406957 13.1149683789955560  9.9544931165179680   T   T   T
  7.6891086568283837  3.1799563969186848  3.3094339217652693   F   F   F
 17.8439318158197828  3.1799563969186848  3.3761427454113133   F   F   F
 12.5340750866789055 13.1905633915510041 10.1259703047926575   T   T   T
 17.8439318158197828  6.7513042184734262  3.3761427454113133   F   F   F
 12.5563009781520556 16.6016257290266687 10.1398486723138550   T   T   T
  4.0973413133232786 14.8931363233453737  9.0023368667608352   T   T   T
  6.0281749005281000  4.9656303076960553  2.2907179157230457   F   F   F
 16.1829980595196439  4.9656303076960553  4.3948587514535369   F   F   F
 14.5154214857541799 14.8997804482456964 10.8689715789805419   T   T   T
  8.6114921007489755  1.4146856099378582  9.1990931219956522   F   F   F
  1.5433310582425686 11.3459462253299677  2.5135164548190696   F   F   F
  8.6114921007489755  8.5165750054542517  9.1990931219956522   F   F   F
  1.5432785465466892 18.4525476872721832  2.5213318427609890   T   T   T
 11.6855280916775808 18.4511824799511928  4.1680291876521522   T   T   T
 18.7663152597405194  8.5165750054542517 10.8576368795340965   F   F   F
 11.6981542172341122 11.3459462253299677  4.1720602123575130   F   F   F
 18.7663152597405194  1.4146856099378582 10.8576368795340965   F   F   F
  6.5543253377466240  0.6425666935286518 11.2753241723876716   F   F   F
  3.6004978212449203 10.5738273089207624  4.5897475052110890   F   F   F
  6.5543253377466240  9.2886939218634588 11.2753241723876716   F   F   F
  3.6171128742099143 19.2198239696824480  4.5856900984607281   T   T   T
 13.7459971022181708 19.2206734252877673  2.0931899487826811   T   T   T
 16.7091484967381696  9.2886939218634588  8.7814058291420753   F   F   F
 13.7553209802364638 10.5738273089207624  2.0958291619654932   F   F   F
 16.7091484967381696  0.6425666935286518  8.7814058291420753   F   F   F
  5.6448362218964876  1.0320241432667694  0.8173882092636284   F   F   F
  4.5099869370950563 10.9632847586588795  7.5029648764402106   F   F   F
  5.6448362218964876  8.8992364721253416  0.8173882092636284   F   F   F
  4.5089648966765248 18.8019945951508198  7.5250865110723151   T   T   T
 14.6678613208064768 18.8339058384722975 12.5590778079401346   T   T   T
 15.7996593808880306  8.8992364721253416  5.8681884579129546   F   F   F
 14.6648100960866010 10.9632847586588795 12.5537651250895372   F   F   F
 15.7996593808880306  1.0320241432667694  5.8681884579129546   F   F   F
  2.4881439176978279  1.0483023193839807  0.6417355337127613   F   F   F
  7.6666792412937159 10.9795629347759487  7.3273122008893434   F   F   F
  2.4881439176978279  8.8829582960081304  0.6417355337127613   F   F   F
  7.7115820011203029 18.7727903046978000  7.3544981172021471   T   T   T
 17.8197393297293765 18.8201078759214013 12.7366786373339185   T   T   T
 12.6429670766893718  8.8829582960081304  6.0438411334638209   F   F   F
 17.8215024002852616 10.9795629347759487 12.7294178006404035   F   F   F
 12.6429670766893718  1.0483023193839807  6.0438411334638209   F   F   F
  1.4669611892426841  0.7765305914257938 11.0116839679886329   F   F   F
  8.6878619697488606 10.7077912068179053  4.3261073008120503   F   F   F
  1.4669611892426841  9.1547300239663159 11.0116839679886329   F   F   F
  8.6683339482134016 19.0839732720707254  4.3200468867040867   T   T   T
 18.8466861612589938 19.0873303493109638  2.3613819570507957   T   T   T
 11.6217843482342271  9.1547300239663159  9.0450460335411140   F   F   F
 18.8426851287404027 10.7077912068179053  2.3594693663645319   F   F   F
 11.6217843482342271  0.7765305914257938  9.0450460335411140   F   F   F
  4.0843573639185831  1.3979692287630687  9.5406986308418436   F   F   F
  6.0704657950729608 11.3292298441551793  2.8551219636652609   F   F   F
  4.0843573639185831  8.5332913866290419  9.5406986308418436   F   F   F
  6.0700957191518281 18.4519639294981275  2.8325488673480455   T   T   T
 16.2234171420466922 18.4711533817415159  3.8202767826210509   T   T   T
 14.2391805229101269  8.5332913866290419 10.5160313706879034   F   F   F
 16.2252889540645029 11.3292298441551793  3.8304547035113221   F   F   F
 14.2391805229101269  1.3979692287630687 10.5160313706879034   F   F   F
  8.5605172492729817 16.2498421118985412  9.1269730006239005   T   T   T
  1.5763273773718030  6.5092533948319806  2.4761345411157811   F   F   F
  8.5224606834877630 13.4980501282677299  9.1092249901532938   T   T   T
  1.5763273773718030  3.4220072205601295  2.4761345411157811   F   F   F
 11.7311505363633461  3.4220072205601295  4.2094421260608010   F   F   F
 18.6919845238013913 13.3534223417649258 10.8941938899911026   T   T   T
 11.7311505363633461  6.5092533948319806  4.2094421260608010   F   F   F
 18.6776391578406553 16.4438628361306698 10.9001272390506685   T   T   T
  6.3786042025496466 17.3701652694972282 11.1138395774698413   T   T   T
  3.7180465794847750  7.4382500466046224  4.4764479790710539   F   F   F
  6.3964409184714670 12.4256491515767475 11.1395626753856796   T   T   T
  3.7180465794847750  2.4930105687874886  4.4764479790710539   F   F   F
 13.8728697384763198  2.4930105687874886  2.2091286881055288   F   F   F
 16.5166052547095070 12.4099582300850741  8.9025004287403231   T   T   T
 13.8728697384763198  7.4382500466046224  2.2091286881055288   F   F   F
 16.5289756371493475 17.3963138009588896  8.8973201973463389   T   T   T
  5.5062568864345272 16.4446847530496711  0.4939466619304836   T   T   T
  4.6170079927443011  6.5095434530137322  7.2176998349999728   F   F   F
  5.5119993168554577 13.3364560597444424  0.5153252851645020   T   T   T
  4.6170079927443011  3.4217171623783784  7.2176998349999728   F   F   F
 14.7718311517358440  3.4217171623783784 12.8390301665297759   F   F   F
 15.7145101941718703 13.3759814171222828  6.1391362485281356   T   T   T
 14.7718311517358440  6.5095434530137322 12.8390301665297759   F   F   F
 15.7134396533609593 16.4334686256079259  6.1347947979156920   T   T   T
  2.3496461325552334 16.4576513609901021  0.2935813126316860   T   T   T
  7.7766577971384301  6.5146392987053847  6.9908051240805120   F   F   F
  2.3572346813491820 13.3410507091555637  0.2889052437431161   T   T   T
  7.7766577971384301  3.4166213166867263  6.9908051240805120   F   F   F
 17.9314809561299739  3.4166213166867263 13.0659248774492358   F   F   F
 12.5449961151576801 13.3688174970157423  6.3570215532330963   T   T   T
 17.9314809561299739  6.5146392987053847 13.0659248774492358   F   F   F
 12.5419680314038153 16.4298466563369239  6.3559241664572177   T   T   T
  1.3210682688240221 17.4882631347321116 10.8900200612948286   T   T   T
  8.7665009375840501  7.5582981210348308  4.2126116944586931   F   F   F
  1.3379941728203371 12.3059882068552220 10.8721730309636602   T   T   T
  8.7665009375840501  2.3729624943572789  4.2126116944586931   F   F   F
 18.9213240965755958  2.3729624943572789  2.4729649727178891   F   F   F
 11.5478791607338636 12.2955545824478261  9.1305899189128539   T   T   T
 18.9213240965755958  7.5582981210348308  2.4729649727178891   F   F   F
 11.5563380468826402 17.4811125763299593  9.1449412382405448   T   T   T
  3.8771804839967592 16.4449105641702005  9.4096843018813932   T   T   T
  6.1940601493177123  6.5178291587723436  2.7207962266042216   F   F   F
  3.9175876692931704 13.3353412683976504  9.4052425349878206   T   T   T
  6.1940601493177123  3.4134314566197661  2.7207962266042216   F   F   F
 16.3488833083092580  3.4134314566197661  3.9647804405723610   F   F   F
 14.1095759421364448 13.3480595124156416 10.6596691242362276   T   T   T
 16.3488833083092580  6.5178291587723436  3.9647804405723610   F   F   F
 14.1317947488290763 16.4554744251589078 10.6575846200818773   T   T   T
 10.7990680900113354 14.8799278014610472 11.0477048232929853   T   T   T
  9.6008200564389732 14.8884532240781624 12.6105225599371433   T   T   T
 12.3645539882068096 14.8403628836104708 12.3416256037985459   T   T   T
