 O Si Pd  C  O                          
   1.00000000000000     
    20.3096463179830877    0.0000000000000000    0.0000000000000000
     0.0000000000000000   19.8625212307842212    0.0000000000000000
     0.0000000000000000    0.0000000000000000   13.3711533343531652
   O    Si   Pd   C    O 
   192    96     1     1     2
Selective dynamics
Direct
  0.5025909357277101  0.0727798873228238  0.7075249800237629   F   F   F
  0.9974090642722899  0.5727798873228238  0.2075249800237629   F   F   F
  0.5025909357277101  0.4272201126771762  0.7075249800237629   F   F   F
  0.9973383451186767  0.9270875734378181  0.2077087896209270   T   T   T
  0.4973356715247843  0.9272429508780574  0.2922927950780986   T   T   T
  0.0025909357277101  0.4272201126771762  0.7924750199762371   F   F   F
  0.4974090642722899  0.5727798873228238  0.2924750199762371   F   F   F
  0.0025909357277101  0.0727798873228238  0.7924750199762371   F   F   F
  0.3868825154844515  0.0693889629433002  0.7958398315398867   F   F   F
  0.1131174845155485  0.5693889629433002  0.2958398315398867   F   F   F
  0.3868825154844515  0.4306110370566998  0.7958398315398867   F   F   F
  0.1129438057844178  0.9309600270619740  0.2961802258363278   T   T   T
  0.6131618725338862  0.9306486023729088  0.2039069667027380   T   T   T
  0.8868825154844515  0.4306110370566998  0.7041601684601133   F   F   F
  0.6131174845155485  0.5693889629433002  0.2041601684601133   F   F   F
  0.8868825154844515  0.0693889629433002  0.7041601684601133   F   F   F
  0.4023996572529711  0.1395881488352799  0.6299567877606833   F   F   F
  0.0975121545789028  0.6395342345300027  0.1297771670560625   T   T   T
  0.4023996572529711  0.3604118511647201  0.6299567877606833   F   F   F
  0.0978776038232531  0.8605235424109577  0.1304709038895490   T   T   T
  0.5973502123931618  0.8602224521904756  0.3692859508836476   T   T   T
  0.9023996572529711  0.3604118511647201  0.8700432122393167   F   F   F
  0.5972453455425845  0.6397910785806423  0.3699626840526136   T   T   T
  0.9023996572529711  0.1395881488352799  0.8700432122393167   F   F   F
  0.4045031871746829  0.0051825304987858  0.6227513228883907   F   F   F
  0.0954968128253171  0.5051825304987858  0.1227513228883836   F   F   F
  0.4045031871746829  0.4948174695012142  0.6227513228883907   F   F   F
  0.0952163498514883  0.9948983679282547  0.1227080454552562   T   T   T
  0.5957394357428114  0.9945005037326816  0.3774903368013697   T   T   T
  0.9045031871746829  0.4948174695012142  0.8772486771116093   F   F   F
  0.5954968128253171  0.5051825304987858  0.3772486771116164   F   F   F
  0.9045031871746829  0.0051825304987858  0.8772486771116093   F   F   F
  0.3244131055804047  0.0395323330820503  0.9639933782656485   F   F   F
  0.1755868944195953  0.5395323330820503  0.4639933782656414   F   F   F
  0.3244131055804047  0.4604676669179497  0.9639933782656485   F   F   F
  0.1757277906487325  0.9607470676062164  0.4640149822772927   T   T   T
  0.6756031668405322  0.9605906866793024  0.0358764995057801   T   T   T
  0.8244131055804047  0.4604676669179497  0.5360066217343515   F   F   F
  0.6755868944195953  0.5395323330820503  0.0360066217343515   F   F   F
  0.8244131055804047  0.0395323330820503  0.5360066217343515   F   F   F
  0.3252780612198990  0.9535904912538057  0.8088311224561805   T   T   T
  0.1753558411149996  0.4538071248021893  0.3088267361878323   F   F   F
  0.3246441588850004  0.5461928751978107  0.8088267361878323   F   F   F
  0.1753558411149996  0.0461928751978107  0.3088267361878323   F   F   F
  0.6753558411149996  0.0461928751978107  0.1911732638121677   F   F   F
  0.8246441588850004  0.5461928751978107  0.6911732638121677   F   F   F
  0.6753558411149996  0.4538071248021893  0.1911732638121677   F   F   F
  0.8243403420695142  0.9538312473089414  0.6912794118377814   T   T   T
  0.2554253162963604  0.0666022326352760  0.8022081905298890   F   F   F
  0.2445746837036396  0.5666022326352760  0.3022081905298890   F   F   F
  0.2554253162963604  0.4333977673647240  0.8022081905298890   F   F   F
  0.2446515670666923  0.9335829550183624  0.3021253048957276   T   T   T
  0.7447348557188858  0.9335524130237507  0.1973514735225846   T   T   T
  0.7554253162963604  0.4333977673647240  0.6977918094701110   F   F   F
  0.7445746837036396  0.5666022326352760  0.1977918094701110   F   F   F
  0.7554253162963604  0.0666022326352760  0.6977918094701110   F   F   F
  0.2915288497951138  0.1271841775282851  0.1038202525947156   F   F   F
  0.2081042937945965  0.6269898017885269  0.6038007544699702   T   T   T
  0.2915288497951138  0.3728158224717149  0.1038202525947156   F   F   F
  0.2078690238351110  0.8729679473724268  0.6039360339978077   T   T   T
  0.7087723136582794  0.8728790382987214  0.8965095318748555   T   T   T
  0.7915288497951138  0.3728158224717149  0.3961797474052844   F   F   F
  0.7083207583440413  0.6272353767381499  0.8967588700843752   T   T   T
  0.7915288497951138  0.1271841775282851  0.3961797474052844   F   F   F
  0.2010413266345239  0.0428271635220199  0.0290771958813778   F   F   F
  0.2989586733654761  0.5428271635220199  0.5290771958813778   F   F   F
  0.2010413266345239  0.4571728364779801  0.0290771958813778   F   F   F
  0.2990134013901907  0.9570092473402912  0.5297025670906000   T   T   T
  0.7990641333160912  0.9574266565904633  0.9710045286624595   T   T   T
  0.7010413266345239  0.4571728364779801  0.4709228041186222   F   F   F
  0.7989586733654761  0.5428271635220199  0.9709228041186222   F   F   F
  0.7010413266345239  0.0428271635220199  0.4709228041186222   F   F   F
  0.2968895493308423  0.9978563749150382  0.1470275059927886   F   F   F
  0.2031104506691577  0.4978563749150382  0.6470275059927815   F   F   F
  0.2968895493308423  0.5021436250849618  0.1470275059927886   F   F   F
  0.2031104506691577  0.0021436250849618  0.6470275059927815   F   F   F
  0.7031104506691577  0.0021436250849618  0.8529724940072185   F   F   F
  0.7968895493308423  0.5021436250849618  0.3529724940072114   F   F   F
  0.7031104506691577  0.4978563749150382  0.8529724940072185   F   F   F
  0.7968895493308423  0.9978563749150382  0.3529724940072114   F   F   F
  0.1089942560051327  0.1267462740242564  0.0958674480733634   F   F   F
  0.3917501146654022  0.6265862857002156  0.5959703764942580   T   T   T
  0.1089942560051327  0.3732537259757436  0.0958674480733634   F   F   F
  0.3925373063404338  0.8741548658065283  0.5968045702606161   T   T   T
  0.8907568769689441  0.8733405016127376  0.9033628962434080   T   T   T
  0.6089942560051327  0.3732537259757436  0.4041325519266366   F   F   F
  0.8906726288876733  0.6267804402314650  0.9039362461246484   T   T   T
  0.6089942560051327  0.1267462740242564  0.4041325519266366   F   F   F
  0.0831228757301545  0.0463555586530404  0.9432954022258713   F   F   F
  0.4168771242698455  0.5463555586530404  0.4432954022258713   F   F   F
  0.0831228757301545  0.4536444413469596  0.9432954022258713   F   F   F
  0.4169400207035531  0.9539976644671867  0.4430336011389784   T   T   T
  0.9166653118222338  0.9532106938399487  0.0570439437788949   T   T   T
  0.5831228757301545  0.4536444413469596  0.5567045977741287   F   F   F
  0.9168771242698455  0.5463555586530404  0.0567045977741287   F   F   F
  0.5831228757301545  0.0463555586530404  0.5567045977741287   F   F   F
  0.1289595153762306  0.0794086100630622  0.7630589808606629   F   F   F
  0.3710404846237694  0.5794086100630622  0.2630589808606629   F   F   F
  0.1289595153762306  0.4205913899369378  0.7630589808606629   F   F   F
  0.3712847280589078  0.9207136118641599  0.2620208553314975   T   T   T
  0.8710307768422317  0.9204298869053240  0.2376781937255108   T   T   T
  0.6289595153762306  0.4205913899369378  0.7369410191393371   F   F   F
  0.8710404846237694  0.5794086100630622  0.2369410191393371   F   F   F
  0.6289595153762306  0.0794086100630622  0.7369410191393371   F   F   F
  0.0735578155890058  0.9602796786485160  0.7910674703816276   T   T   T
  0.4264236799621770  0.4603034831418356  0.2908788493740602   F   F   F
  0.0735763200378230  0.5396965168581644  0.7908788493740531   F   F   F
  0.4264236799621770  0.0396965168581644  0.2908788493740602   F   F   F
  0.9264236799621770  0.0396965168581644  0.2091211506259398   F   F   F
  0.5735763200378230  0.5396965168581644  0.7091211506259469   F   F   F
  0.9264236799621770  0.4603034831418356  0.2091211506259398   F   F   F
  0.5732307189016974  0.9602096600679384  0.7090842855649675   T   T   T
  0.2164898181671191  0.1361625178643777  0.6465161981987251   F   F   F
  0.2835349749275877  0.6356727122452026  0.1456814936266610   T   T   T
  0.2164898181671191  0.3638374821356223  0.6465161981987251   F   F   F
  0.2833631538899865  0.8639863470940670  0.1460419233720860   T   T   T
  0.7819056179732319  0.8641481457750940  0.3535292811709340   T   T   T
  0.7164898181671191  0.3638374821356223  0.8534838018012749   F   F   F
  0.7823660279156824  0.6358920709725031  0.3536622115012512   T   T   T
  0.7164898181671191  0.1361625178643777  0.8534838018012749   F   F   F
  0.4968732455476194  0.8515109555404449  0.7146689396780993   T   T   T
  0.0041870730047435  0.3531357233755159  0.2140092002379745   F   F   F
  0.4959541355659794  0.6477577532387394  0.7145045964746150   T   T   T
  0.0041870730047435  0.1468642766244841  0.2140092002379745   F   F   F
  0.5041870730047435  0.1468642766244841  0.2859907997620255   F   F   F
  0.9954472957687127  0.6465090617164594  0.7859069708126348   T   T   T
  0.5041870730047435  0.3531357233755159  0.2859907997620255   F   F   F
  0.9962140035202959  0.8529385091846786  0.7865508367536866   T   T   T
  0.3779802784782885  0.8319602811718546  0.7856276683603660   T   T   T
  0.1223394308142645  0.3330694750354013  0.2858074615356969   F   F   F
  0.3767421112952444  0.6682617636975356  0.7844452344929362   T   T   T
  0.1223394308142645  0.1669305249645987  0.2858074615356969   F   F   F
  0.6223394308142645  0.1669305249645987  0.2141925384643031   F   F   F
  0.8772265295130333  0.6668219735495600  0.7137757807806825   T   T   T
  0.6223394308142645  0.3330694750354013  0.2141925384643031   F   F   F
  0.8784418307659031  0.8336475589626027  0.7128107654347340   T   T   T
  0.4255544672631182  0.7502137774730758  0.6427718572719041   T   T   T
  0.0759212098317121  0.2500000000000000  0.1472425182485750   F   F   F
  0.5759212098317121  0.2500000000000000  0.3527574817514250   F   F   F
  0.9235972419862853  0.7500266861231315  0.8518805035311122   T   T   T
  0.3178009582607887  0.8643399981443673  0.9549724963805684   T   T   T
  0.1824716471111429  0.3646363999312143  0.4553082923555465   F   F   F
  0.3175934988678910  0.6356037235279407  0.9544788417103380   T   T   T
  0.1824716471111429  0.1353636000687857  0.4553082923555465   F   F   F
  0.6824716471111429  0.1353636000687857  0.0446917076444535   F   F   F
  0.8154007132777062  0.6349969535846574  0.5447200952283382   T   T   T
  0.6824716471111429  0.3646363999312143  0.0446917076444535   F   F   F
  0.8155774225408245  0.8652135914320636  0.5444508435107088   T   T   T
  0.2482912563539150  0.8465639141367967  0.7896716728481640   T   T   T
  0.2524421241138057  0.3470288878372898  0.2906042087582890   F   F   F
  0.2470381723808508  0.6527418518062232  0.7902290842927977   T   T   T
  0.2524421241138057  0.1529711121627102  0.2906042087582890   F   F   F
  0.7524421241138057  0.1529711121627102  0.2093957912417110   F   F   F
  0.7469912904749952  0.6527560230916937  0.7098239455055912   T   T   T
  0.7524421241138057  0.3470288878372898  0.2093957912417110   F   F   F
  0.7481653107693861  0.8462629672092798  0.7101472352911000   T   T   T
  0.2957983842678860  0.7498559345199831  0.0496560663549877   T   T   T
  0.2047512101703362  0.2500000000000000  0.5502475789369754   F   F   F
  0.7047512101703362  0.2500000000000000  0.9497524210630175   F   F   F
  0.7971993190924661  0.7500566937252456  0.4490414568712762   T   T   T
  0.1962645468934441  0.8322541828708864  0.0061738779877101   T   T   T
  0.3039666124841744  0.3327166449111161  0.5062562090960796   F   F   F
  0.1961160594348376  0.6676107725324781  0.0060796271964070   T   T   T
  0.3039666124841744  0.1672833550888839  0.5062562090960796   F   F   F
  0.8039666124841744  0.1672833550888839  0.9937437909039204   F   F   F
  0.6948868743366496  0.6720363993725070  0.4920051371228859   T   T   T
  0.8039666124841744  0.3327166449111161  0.9937437909039204   F   F   F
  0.6949538677366660  0.8280620505442576  0.4922100191464758   T   T   T
  0.0930138411828392  0.7501343027236834  0.0203685240044704   T   T   T
  0.4068435254241223  0.2500000000000000  0.5199589040338424   F   F   F
  0.9068435254241223  0.2500000000000000  0.9800410959661576   F   F   F
  0.5883465034846491  0.7501647635902201  0.4804225581321440   T   T   T
  0.0810541243414448  0.8699305182211761  0.9350315988196994   T   T   T
  0.4191681511649463  0.3696157380695979  0.4342049483443873   F   F   F
  0.0808150728694633  0.6307366724474437  0.9340767596267142   T   T   T
  0.4191681511649463  0.1303842619304021  0.4342049483443873   F   F   F
  0.9191681511649392  0.1303842619304021  0.0657950516556127   F   F   F
  0.5810950535334726  0.6306334510899201  0.5663232832065496   T   T   T
  0.9191681511649392  0.3696157380695979  0.0657950516556127   F   F   F
  0.5811945436720733  0.8698356111076618  0.5656489968921082   T   T   T
  0.1218602100096159  0.8398485453450217  0.7487539356041437   T   T   T
  0.3785939221413273  0.3399016741142518  0.2475054947775277   F   F   F
  0.1209140519690356  0.6601900214248466  0.7470869930853382   T   T   T
  0.3785939221413273  0.1600983258857482  0.2475054947775277   F   F   F
  0.8785939221413201  0.1600983258857482  0.2524945052224723   F   F   F
  0.6211311244525169  0.6601895185312159  0.7534004229454992   T   T   T
  0.8785939221413201  0.3399016741142518  0.2524945052224723   F   F   F
  0.6221052978670961  0.8400368126200373  0.7522613595583139   T   T   T
  0.2027632025144514  0.7499018606769965  0.6711138648914674   T   T   T
  0.2968133864148328  0.2500000000000000  0.1713179004415224   F   F   F
  0.7968133864148328  0.2500000000000000  0.3286820995584776   F   F   F
  0.7030568868526367  0.7499185483535895  0.8296859612190586   T   T   T
  0.4240099490616913  0.0712238689892644  0.6879805273312769   F   F   F
  0.0759900509383087  0.5712238689892644  0.1879805273312769   F   F   F
  0.4240099490616913  0.4287761310107356  0.6879805273312769   F   F   F
  0.0759819703716406  0.9288737503746891  0.1882983072823531   T   T   T
  0.5758120944060625  0.9289162009644814  0.3115271583161484   T   T   T
  0.9240099490616913  0.4287761310107356  0.8120194726687231   F   F   F
  0.5759900509383087  0.5712238689892644  0.3120194726687231   F   F   F
  0.9240099490616913  0.0712238689892644  0.8120194726687231   F   F   F
  0.3227198167376812  0.0323507114762833  0.8432574132120010   F   F   F
  0.1772801832623188  0.5323507114762833  0.3432574132120010   F   F   F
  0.3227198167376812  0.4676492885237167  0.8432574132120010   F   F   F
  0.1774207828551986  0.9676658099896035  0.3432713226624171   T   T   T
  0.6773429003013612  0.9677390945679397  0.1565826835192873   T   T   T
  0.8227198167376812  0.4676492885237167  0.6567425867879990   F   F   F
  0.6772801832623188  0.5323507114762833  0.1567425867879990   F   F   F
  0.8227198167376812  0.0323507114762833  0.6567425867879990   F   F   F
  0.2779386767015382  0.0519583657721796  0.0611307184073340   F   F   F
  0.2220613232984618  0.5519583657721796  0.5611307184073340   F   F   F
  0.2779386767015382  0.4480416342278204  0.0611307184073340   F   F   F
  0.2219829079702354  0.9479320620507853  0.5611639954091235   T   T   T
  0.7222509868332032  0.9482037619789954  0.9389579199658661   T   T   T
  0.7779386767015382  0.4480416342278204  0.4388692815926660   F   F   F
  0.7220613232984618  0.5519583657721796  0.9388692815926660   F   F   F
  0.7779386767015382  0.0519583657721796  0.4388692815926660   F   F   F
  0.1225104503909904  0.0527779080613016  0.0479940299588080   F   F   F
  0.3774895496090096  0.5527779080612945  0.5479940299588080   F   F   F
  0.1225104503909904  0.4472220919386984  0.0479940299588080   F   F   F
  0.3775057022563413  0.9474968986709220  0.5475101284418100   T   T   T
  0.8775632276557405  0.9471681161189772  0.9520572655323277   T   T   T
  0.6225104503909904  0.4472220919386984  0.4520059700411920   F   F   F
  0.8774895496090096  0.5527779080612945  0.9520059700411920   F   F   F
  0.6225104503909904  0.0527779080613016  0.4520059700411920   F   F   F
  0.0722297752641694  0.0390952680378902  0.8235403254031510   F   F   F
  0.4277702247358306  0.5390952680378902  0.3235403254031510   F   F   F
  0.0722297752641694  0.4609047319621098  0.8235403254031510   F   F   F
  0.4275257772541080  0.9608001640810946  0.3231120231608694   T   T   T
  0.9277192658670272  0.9607715904593920  0.1768171691219582   T   T   T
  0.5722297752641694  0.4609047319621098  0.6764596745968490   F   F   F
  0.9277702247358306  0.5390952680378902  0.1764596745968490   F   F   F
  0.5722297752641694  0.0390952680378902  0.6764596745968490   F   F   F
  0.2011043077742869  0.0703822647950858  0.7135284737427909   F   F   F
  0.2988956922257131  0.5703822647950858  0.2135284737427909   F   F   F
  0.2011043077742869  0.4296177352049142  0.7135284737427909   F   F   F
  0.2988904722065603  0.9293802842741545  0.2134900696960117   T   T   T
  0.7986964707601728  0.9296298655585201  0.2865211102403725   T   T   T
  0.7011043077742869  0.4296177352049142  0.7864715262572091   F   F   F
  0.7988956922257131  0.5703822647950858  0.2864715262572091   F   F   F
  0.7011043077742869  0.0703822647950858  0.7864715262572091   F   F   F
  0.4229320830383641  0.8282282387725360  0.6856254964370564   T   T   T
  0.0776147133579599  0.3277153649932174  0.1851848138450478   F   F   F
  0.4223738751019780  0.6722185399928537  0.6851280515078741   T   T   T
  0.0776147133579599  0.1722846350067826  0.1851848138450478   F   F   F
  0.5776147133579599  0.1722846350067826  0.3148151861549522   F   F   F
  0.9221010004325810  0.6721892672734794  0.8144649284011413   T   T   T
  0.5776147133579599  0.3277153649932174  0.3148151861549522   F   F   F
  0.9225674939391203  0.8278438468714858  0.8142479783372973   T   T   T
  0.3172070760169015  0.8742197592997766  0.8346431197654702   T   T   T
  0.1830680121786585  0.3744867008663704  0.3347839836351412   F   F   F
  0.3164449089425095  0.6256649467892590  0.8342054635860203   T   T   T
  0.1830680121786585  0.1255132991336296  0.3347839836351412   F   F   F
  0.6830680121786585  0.1255132991336296  0.1652160163648588   F   F   F
  0.8163254430747469  0.6254229907245944  0.6652675969600340   T   T   T
  0.6830680121786585  0.3744867008663704  0.1652160163648588   F   F   F
  0.8169247226555026  0.8745441324864186  0.6650755121935613   T   T   T
  0.2730073337526698  0.8274706393722764  0.0398389887809467   T   T   T
  0.2273307924942145  0.3277299682844301  0.5397963552221228   F   F   F
  0.2728793717448484  0.6722999063286832  0.0395857538000579   T   T   T
  0.2273307924942145  0.1722700317155699  0.5397963552221228   F   F   F
  0.7273307924942145  0.1722700317155699  0.9602036447778772   F   F   F
  0.7720518817326979  0.6730908797987418  0.4596471523049292   T   T   T
  0.7273307924942145  0.3277299682844301  0.9602036447778772   F   F   F
  0.7720617046342888  0.8270269504628280  0.4596489351281203   T   T   T
  0.1173619157467798  0.8279757652152696  0.0234427351782657   T   T   T
  0.3829046392724536  0.3279865241180246  0.5228273843902258   F   F   F
  0.1171946801149701  0.6722381649049852  0.0229285298815744   T   T   T
  0.3829046392724536  0.1720134758819754  0.5228273843902258   F   F   F
  0.8829046392724536  0.1720134758819754  0.9771726156097742   F   F   F
  0.6158111427568781  0.6728417779250834  0.4768199492327829   T   T   T
  0.8829046392724536  0.3279865241180246  0.9771726156097742   F   F   F
  0.6159464477942819  0.8274581798296423  0.4763365527957846   T   T   T
  0.0686955589199239  0.8805534441081654  0.8158305392753628   T   T   T
  0.4316422255872467  0.3805306503245163  0.3150522314059216   F   F   F
  0.0681838844131313  0.6194835583151669  0.8150395805380367   T   T   T
  0.4316422255872467  0.1194693496754837  0.3150522314059216   F   F   F
  0.9316422255872467  0.1194693496754837  0.1849477685940784   F   F   F
  0.5684108159685420  0.6195201737709086  0.6855663829673850   T   T   T
  0.9316422255872467  0.3805306503245163  0.1849477685940784   F   F   F
  0.5688792122393204  0.8804619180068992  0.6850790592601972   T   T   T
  0.1950738641543221  0.8279860931719228  0.7032318149193643   T   T   T
  0.3049811923033445  0.3281471210548332  0.2034825387585641   F   F   F
  0.1945328216510703  0.6718485009882033  0.7030086067530015   T   T   T
  0.3049811923033445  0.1718528789451668  0.2034825387585641   F   F   F
  0.8049811923033445  0.1718528789451668  0.2965174612414359   F   F   F
  0.6948366340258342  0.6718835702559502  0.7972613529839215   T   T   T
  0.8049811923033445  0.3281471210548332  0.2965174612414359   F   F   F
  0.6954522152058008  0.8280126582386553  0.7971434557973835   T   T   T
  0.4461533043136424  0.7525290739629851  0.4531582556062621   T   T   T
  0.4625514861544649  0.7480289546047338  0.3142023704032930   T   T   T
  0.4583509594492924  0.7495284491735984  0.2280896391684172   T   T   T
  0.3540471747201496  0.7634660695795458  0.4147506038960930   T   T   T
 
  0.00000000E+00  0.00000000E+00  0.00000000E+00
  0.00000000E+00  0.00000000E+00  0.00000000E+00
  0.00000000E+00  0.00000000E+00  0.00000000E+00
  0.00000000E+00  0.00000000E+00  0.00000000E+00
  0.00000000E+00  0.00000000E+00  0.00000000E+00
  0.00000000E+00  0.00000000E+00  0.00000000E+00
  0.00000000E+00  0.00000000E+00  0.00000000E+00
  0.00000000E+00  0.00000000E+00  0.00000000E+00
  0.00000000E+00  0.00000000E+00  0.00000000E+00
  0.00000000E+00  0.00000000E+00  0.00000000E+00
  0.00000000E+00  0.00000000E+00  0.00000000E+00
  0.00000000E+00  0.00000000E+00  0.00000000E+00
  0.00000000E+00  0.00000000E+00  0.00000000E+00
  0.00000000E+00  0.00000000E+00  0.00000000E+00
  0.00000000E+00  0.00000000E+00  0.00000000E+00
  0.00000000E+00  0.00000000E+00  0.00000000E+00
  0.00000000E+00  0.00000000E+00  0.00000000E+00
  0.00000000E+00  0.00000000E+00  0.00000000E+00
  0.00000000E+00  0.00000000E+00  0.00000000E+00
  0.00000000E+00  0.00000000E+00  0.00000000E+00
  0.00000000E+00  0.00000000E+00  0.00000000E+00
  0.00000000E+00  0.00000000E+00  0.00000000E+00
  0.00000000E+00  0.00000000E+00  0.00000000E+00
  0.00000000E+00  0.00000000E+00  0.00000000E+00
  0.00000000E+00  0.00000000E+00  0.00000000E+00
  0.00000000E+00  0.00000000E+00  0.00000000E+00
  0.00000000E+00  0.00000000E+00  0.00000000E+00
  0.00000000E+00  0.00000000E+00  0.00000000E+00
  0.00000000E+00  0.00000000E+00  0.00000000E+00
  0.00000000E+00  0.00000000E+00  0.00000000E+00
  0.00000000E+00  0.00000000E+00  0.00000000E+00
  0.00000000E+00  0.00000000E+00  0.00000000E+00
  0.00000000E+00  0.00000000E+00  0.00000000E+00
  0.00000000E+00  0.00000000E+00  0.00000000E+00
  0.00000000E+00  0.00000000E+00  0.00000000E+00
  0.00000000E+00  0.00000000E+00  0.00000000E+00
  0.00000000E+00  0.00000000E+00  0.00000000E+00
  0.00000000E+00  0.00000000E+00  0.00000000E+00
  0.00000000E+00  0.00000000E+00  0.00000000E+00
  0.00000000E+00  0.00000000E+00  0.00000000E+00
  0.00000000E+00  0.00000000E+00  0.00000000E+00
  0.00000000E+00  0.00000000E+00  0.00000000E+00
  0.00000000E+00  0.00000000E+00  0.00000000E+00
  0.00000000E+00  0.00000000E+00  0.00000000E+00
  0.00000000E+00  0.00000000E+00  0.00000000E+00
  0.00000000E+00  0.00000000E+00  0.00000000E+00
  0.00000000E+00  0.00000000E+00  0.00000000E+00
  0.00000000E+00  0.00000000E+00  0.00000000E+00
  0.00000000E+00  0.00000000E+00  0.00000000E+00
  0.00000000E+00  0.00000000E+00  0.00000000E+00
  0.00000000E+00  0.00000000E+00  0.00000000E+00
  0.00000000E+00  0.00000000E+00  0.00000000E+00
  0.00000000E+00  0.00000000E+00  0.00000000E+00
  0.00000000E+00  0.00000000E+00  0.00000000E+00
  0.00000000E+00  0.00000000E+00  0.00000000E+00
  0.00000000E+00  0.00000000E+00  0.00000000E+00
  0.00000000E+00  0.00000000E+00  0.00000000E+00
  0.00000000E+00  0.00000000E+00  0.00000000E+00
  0.00000000E+00  0.00000000E+00  0.00000000E+00
  0.00000000E+00  0.00000000E+00  0.00000000E+00
  0.00000000E+00  0.00000000E+00  0.00000000E+00
  0.00000000E+00  0.00000000E+00  0.00000000E+00
  0.00000000E+00  0.00000000E+00  0.00000000E+00
  0.00000000E+00  0.00000000E+00  0.00000000E+00
  0.00000000E+00  0.00000000E+00  0.00000000E+00
  0.00000000E+00  0.00000000E+00  0.00000000E+00
  0.00000000E+00  0.00000000E+00  0.00000000E+00
  0.00000000E+00  0.00000000E+00  0.00000000E+00
  0.00000000E+00  0.00000000E+00  0.00000000E+00
  0.00000000E+00  0.00000000E+00  0.00000000E+00
  0.00000000E+00  0.00000000E+00  0.00000000E+00
  0.00000000E+00  0.00000000E+00  0.00000000E+00
  0.00000000E+00  0.00000000E+00  0.00000000E+00
  0.00000000E+00  0.00000000E+00  0.00000000E+00
  0.00000000E+00  0.00000000E+00  0.00000000E+00
  0.00000000E+00  0.00000000E+00  0.00000000E+00
  0.00000000E+00  0.00000000E+00  0.00000000E+00
  0.00000000E+00  0.00000000E+00  0.00000000E+00
  0.00000000E+00  0.00000000E+00  0.00000000E+00
  0.00000000E+00  0.00000000E+00  0.00000000E+00
  0.00000000E+00  0.00000000E+00  0.00000000E+00
  0.00000000E+00  0.00000000E+00  0.00000000E+00
  0.00000000E+00  0.00000000E+00  0.00000000E+00
  0.00000000E+00  0.00000000E+00  0.00000000E+00
  0.00000000E+00  0.00000000E+00  0.00000000E+00
  0.00000000E+00  0.00000000E+00  0.00000000E+00
  0.00000000E+00  0.00000000E+00  0.00000000E+00
  0.00000000E+00  0.00000000E+00  0.00000000E+00
  0.00000000E+00  0.00000000E+00  0.00000000E+00
  0.00000000E+00  0.00000000E+00  0.00000000E+00
  0.00000000E+00  0.00000000E+00  0.00000000E+00
  0.00000000E+00  0.00000000E+00  0.00000000E+00
  0.00000000E+00  0.00000000E+00  0.00000000E+00
  0.00000000E+00  0.00000000E+00  0.00000000E+00
  0.00000000E+00  0.00000000E+00  0.00000000E+00
  0.00000000E+00  0.00000000E+00  0.00000000E+00
  0.00000000E+00  0.00000000E+00  0.00000000E+00
  0.00000000E+00  0.00000000E+00  0.00000000E+00
  0.00000000E+00  0.00000000E+00  0.00000000E+00
  0.00000000E+00  0.00000000E+00  0.00000000E+00
  0.00000000E+00  0.00000000E+00  0.00000000E+00
  0.00000000E+00  0.00000000E+00  0.00000000E+00
  0.00000000E+00  0.00000000E+00  0.00000000E+00
  0.00000000E+00  0.00000000E+00  0.00000000E+00
  0.00000000E+00  0.00000000E+00  0.00000000E+00
  0.00000000E+00  0.00000000E+00  0.00000000E+00
  0.00000000E+00  0.00000000E+00  0.00000000E+00
  0.00000000E+00  0.00000000E+00  0.00000000E+00
  0.00000000E+00  0.00000000E+00  0.00000000E+00
  0.00000000E+00  0.00000000E+00  0.00000000E+00
  0.00000000E+00  0.00000000E+00  0.00000000E+00
  0.00000000E+00  0.00000000E+00  0.00000000E+00
  0.00000000E+00  0.00000000E+00  0.00000000E+00
  0.00000000E+00  0.00000000E+00  0.00000000E+00
  0.00000000E+00  0.00000000E+00  0.00000000E+00
  0.00000000E+00  0.00000000E+00  0.00000000E+00
  0.00000000E+00  0.00000000E+00  0.00000000E+00
  0.00000000E+00  0.00000000E+00  0.00000000E+00
  0.00000000E+00  0.00000000E+00  0.00000000E+00
  0.00000000E+00  0.00000000E+00  0.00000000E+00
  0.00000000E+00  0.00000000E+00  0.00000000E+00
  0.00000000E+00  0.00000000E+00  0.00000000E+00
  0.00000000E+00  0.00000000E+00  0.00000000E+00
  0.00000000E+00  0.00000000E+00  0.00000000E+00
  0.00000000E+00  0.00000000E+00  0.00000000E+00
  0.00000000E+00  0.00000000E+00  0.00000000E+00
  0.00000000E+00  0.00000000E+00  0.00000000E+00
  0.00000000E+00  0.00000000E+00  0.00000000E+00
  0.00000000E+00  0.00000000E+00  0.00000000E+00
  0.00000000E+00  0.00000000E+00  0.00000000E+00
  0.00000000E+00  0.00000000E+00  0.00000000E+00
  0.00000000E+00  0.00000000E+00  0.00000000E+00
  0.00000000E+00  0.00000000E+00  0.00000000E+00
  0.00000000E+00  0.00000000E+00  0.00000000E+00
  0.00000000E+00  0.00000000E+00  0.00000000E+00
  0.00000000E+00  0.00000000E+00  0.00000000E+00
  0.00000000E+00  0.00000000E+00  0.00000000E+00
  0.00000000E+00  0.00000000E+00  0.00000000E+00
  0.00000000E+00  0.00000000E+00  0.00000000E+00
  0.00000000E+00  0.00000000E+00  0.00000000E+00
  0.00000000E+00  0.00000000E+00  0.00000000E+00
  0.00000000E+00  0.00000000E+00  0.00000000E+00
  0.00000000E+00  0.00000000E+00  0.00000000E+00
  0.00000000E+00  0.00000000E+00  0.00000000E+00
  0.00000000E+00  0.00000000E+00  0.00000000E+00
  0.00000000E+00  0.00000000E+00  0.00000000E+00
  0.00000000E+00  0.00000000E+00  0.00000000E+00
  0.00000000E+00  0.00000000E+00  0.00000000E+00
  0.00000000E+00  0.00000000E+00  0.00000000E+00
  0.00000000E+00  0.00000000E+00  0.00000000E+00
  0.00000000E+00  0.00000000E+00  0.00000000E+00
  0.00000000E+00  0.00000000E+00  0.00000000E+00
  0.00000000E+00  0.00000000E+00  0.00000000E+00
  0.00000000E+00  0.00000000E+00  0.00000000E+00
  0.00000000E+00  0.00000000E+00  0.00000000E+00
  0.00000000E+00  0.00000000E+00  0.00000000E+00
  0.00000000E+00  0.00000000E+00  0.00000000E+00
  0.00000000E+00  0.00000000E+00  0.00000000E+00
  0.00000000E+00  0.00000000E+00  0.00000000E+00
  0.00000000E+00  0.00000000E+00  0.00000000E+00
  0.00000000E+00  0.00000000E+00  0.00000000E+00
  0.00000000E+00  0.00000000E+00  0.00000000E+00
  0.00000000E+00  0.00000000E+00  0.00000000E+00
  0.00000000E+00  0.00000000E+00  0.00000000E+00
  0.00000000E+00  0.00000000E+00  0.00000000E+00
  0.00000000E+00  0.00000000E+00  0.00000000E+00
  0.00000000E+00  0.00000000E+00  0.00000000E+00
  0.00000000E+00  0.00000000E+00  0.00000000E+00
  0.00000000E+00  0.00000000E+00  0.00000000E+00