 O Si Hg  H 
 1.0000000000000000
    20.3096463179830877    0.0000000000000000    0.0000000000000000
     0.0000000000000000   19.8625212307842212    0.0000000000000000
     0.0000000000000000    0.0000000000000000   13.3711533343531652
 192  96   1   2
Selective dynamics
Cartesian
 10.2074441472539608  1.4455920571236711  9.4604249957828941   F   F   F
 20.2570253297206690 11.3768526725157813  2.7748483286063115   F   F   F
 10.2074441472539608  8.4856685582684399  9.4604249957828941   F   F   F
 20.2560443298506208 18.4169070662441783  2.7765832877936254   T   T   T
 10.1008737967256472 18.4160369849738608  3.9106817555624849   T   T   T
  0.0526209882624183  8.4856685582684399 10.5963050057468546   F   F   F
 10.1022021707291270 11.3768526725157813  3.9107283385702711   F   F   F
  0.0526209882624183  1.4455920571236711 10.5963050057468546   F   F   F
  7.8574470561008258  1.3782397496433998 10.6412964171056164   F   F   F
  2.2973761028907185 11.3095003650355110  3.9557197499290346   F   F   F
  7.8574470561008258  8.5530208657487101 10.6412964171056164   F   F   F
  2.2950826379688323 18.4883391982330174  3.9605482733939481   T   T   T
 12.4491341148679666 18.4880244102751590  2.7266002599832690   T   T   T
 18.0122702150923679  8.5530208657487101  9.4154335844241306   F   F   F
 12.4521992618822619 11.3095003650355110  2.7298569172475480   F   F   F
 18.0122702150923679  1.3782397496433998  9.4154335844241306   F   F   F
  8.1725947172854614  2.7725725698066146  8.4232488031646700   F   F   F
  1.9832946250422023 12.7052676613502076  1.7411713960227388   T   T   T
  8.1725947172854614  7.1586880455854951  8.4232488031646700   F   F   F
  1.9835805453198965 17.0880352207650645  1.7480470587865431   T   T   T
 12.1379320172123251 17.0890511924800315  4.9413421854224122   T   T   T
 18.3274178762770035  7.1586880455854951 11.6334811983650788   F   F   F
 12.1377267452884965 12.7055993829516183  4.9438818202936119   T   T   T
 18.3274178762770035  2.7725725698066146 11.6334811983650788   F   F   F
  8.2153166660147221  0.1029381220613197  8.3269034275119509   F   F   F
  1.9395064929768218 10.0341987374534298  1.6413267603352724   F   F   F
  8.2153166660147221  9.8283224933307913  8.3269034275119509   F   F   F
  1.9397715310356083 19.7580941888541304  1.6408822435690407   T   T   T
 12.0939227929151301 19.7587856316193111  5.0447450961677376   T   T   T
 18.3701398250062660  9.8283224933307913 11.7298265740177978   F   F   F
 12.0943296519683656 10.0341987374534298  5.0442499068413102   F   F   F
 18.3701398250062660  0.1029381220613197 11.7298265740177978   F   F   F
  6.5887154352565247  0.7852118051446575 12.8897032740910973   F   F   F
  3.5661077237350187 10.7164724205367676  6.2041266069144205   F   F   F
  6.5887154352565247  9.1460488102474535 12.8897032740910973   F   F   F
  3.5680006266631556 19.0771293170013472  6.2051196666887414   T   T   T
 13.7217751320199088 19.0774018367595986  0.4811176895751302   T   T   T
 16.7435385942480686  9.1460488102474535  7.1670267274386505   F   F   F
 13.7209308827265630 10.7164724205367676  0.4814500602620672   F   F   F
 16.7435385942480686  0.7852118051446575  7.1670267274386505   F   F   F
  6.5893260394412794 18.9450754300124942 10.8135824272869403   T   T   T
  3.5614151128380791  9.0137536510646292  4.1293696433153393   F   F   F
  6.5934080461534652 10.8487675797195919 10.8149463104919210   F   F   F
  3.5614151128380791  0.9175069643274809  4.1293696433153393   F   F   F
 13.7162382718296225  0.9175069643274809  2.5562070238612433   F   F   F
 16.7482312051450108 10.8487675797195919  9.2417836910378259   F   F   F
 13.7162382718296225  9.0137536510646292  2.5562070238612433   F   F   F
 16.7436724298869599 18.9455449077821179  9.2435197718266249   T   T   T
  5.1875978346380416  1.3228882597357992 10.7264487216491453   F   F   F
  4.9672253243535023 11.2541488751279086  4.0408720544725618   F   F   F
  5.1875978346380416  8.6083723556563125 10.7264487216491453   F   F   F
  4.9672539885788600 18.5396143398229221  4.0408183925699630   T   T   T
 15.1207608243595679 18.5387560860737928  2.6457069766916961   T   T   T
 15.3424209936295863  8.6083723556563125  9.3302812798806034   F   F   F
 15.1220484833450453 11.2541488751279086  2.6447046127040204   F   F   F
 15.3424209936295863  1.3228882597357992  9.3302812798806034   F   F   F
  5.9208478308271770  2.5261984263753923  1.3881965166552193   F   F   F
  4.2326943594641122 12.4573129714551243  8.0726224357726135   T   T   T
  5.9208478308271770  7.4050621890167188  1.3881965166552193   F   F   F
  4.2301798142671601 17.3367167192618865  8.0754556661623678   T   T   T
 14.3895394332328372 17.3374014282456912 11.9822216112341344   T   T   T
 16.0756709898187218  7.4050621890167188  5.2973801505213629   F   F   F
 14.3857467789787972 12.4562736143539343 11.9825180472936950   T   T   T
 16.0756709898187218  2.5261984263753923  5.2973801505213629   F   F   F
  4.0830782392452933  0.8506554447103878  0.3887956446629249   F   F   F
  6.0717449197462505 10.7819160601024979  7.0743723118395074   F   F   F
  4.0830782392452933  9.0806051706817232  0.3887956446629249   F   F   F
  6.0715188663057473 19.0106219850352360  7.0753568037663452   T   T   T
 16.2262948672805969 19.0156222829829993 12.9835258848085378   T   T   T
 14.2379013982368381  9.0806051706817232  6.2967810225136578   F   F   F
 16.2265680787377953 10.7819160601024979 12.9823576896902395   F   F   F
 14.2379013982368381  0.8506554447103878  6.2967810225136578   F   F   F
  6.0297217424147993 19.8199434320233259  1.9659273269971054   F   F   F
  4.1251014165767446  9.8886828166312153  8.6515039941735932   F   F   F
  6.0297217424147993  9.9738384141530059  1.9659273269971054   F   F   F
  4.1251014165767446  0.0425777987608954  8.6515039941735932   F   F   F
 14.2799245755682875  0.0425777987608954 11.4052260073561555   F   F   F
 16.1845449014063441  9.9738384141530059  4.7196493401794779   F   F   F
 14.2799245755682875  9.8886828166312153 11.4052260073561555   F   F   F
 16.1845449014063441 19.8199434320233259  4.7196493401794779   F   F   F
  2.2136347901559494  2.5175005587295871  1.2818583479620820   F   F   F
  7.9392637007773557 12.4495931124473262  7.9651467371382489   T   T   T
  2.2136347901559494  7.4137600566625226  1.2818583479620820   F   F   F
  7.9417578194481733 17.3458015398902283  7.9655070398011745   T   T   T
 18.0912998080978902 17.3454929629126262 12.0914397928239179   T   T   T
 12.3684579491474924  7.4137600566625226  5.4037183192145006   F   F   F
 18.0932990647420162 12.4495170869172362 12.0912563361294438   T   T   T
 12.3684579491474924  2.5175005587295871  5.4037183192145006   F   F   F
  1.6881962070130982  0.9207382679108781 12.6129474627524694   F   F   F
  8.4666269519784461 10.8519988833029899  5.9273707955758868   F   F   F
  1.6881962070130982  9.0105223474812313 12.6129474627524694   F   F   F
  8.4657510827143660 18.9413942951793111  5.9263299125430846   T   T   T
 18.6217048935924225 18.9412607132124613  0.7590895366018687   T   T   T
 11.8430193660046434  9.0105223474812313  7.4437825387772794   F   F   F
 18.6214501109699881 10.8519988833029899  0.7582058716006961   F   F   F
 11.8430193660046434  0.9207382679108781  7.4437825387772794   F   F   F
  2.6191221466297452  1.5772552032846385 10.2029786362431807   F   F   F
  7.5357010123617982 11.5085158186767487  3.5174019690665985   F   F   F
  2.6191221466297452  8.3540054121074725 10.2029786362431807   F   F   F
  7.5363640829673777 18.2847842663645181  3.5168474644932832   T   T   T
 17.6902497853832976 18.2852873161551770  3.1682329166701408   T   T   T
 12.7739453056212895  8.3540054121074725  9.8537513652865663   F   F   F
 17.6905241713533421 11.5085158186767487  3.1681746981099845   F   F   F
 12.7739453056212895  1.5772552032846385  9.8537513652865663   F   F   F
  1.4956552851832579 19.0733848249594757 10.5775868702362992   T   T   T
  8.6605141216446260  9.1427877065086367  3.8893856967007774   F   F   F
  1.4943090373469170 10.7197335242755862 10.5749623638772636   F   F   F
  8.6605141216446260  0.7884729088834742  3.8893856967007774   F   F   F
 18.8153372806361716  0.7884729088834742  2.7961909704758057   F   F   F
 11.6491321963384618 10.7197335242755862  9.4817676376524833   F   F   F
 18.8153372806361716  9.1427877065086367  2.7961909704758057   F   F   F
 11.6485244554572258 19.0734587433117717  9.4792615122244470   T   T   T
  4.3968316384186590  2.7045309019182375  8.6446672192582152   F   F   F
  5.7613131043558479 12.6375062887585230  1.9611361656321171   T   T   T
  4.3968316384186590  7.2267297134738726  8.6446672192582152   F   F   F
  5.7627799467401060 17.1558890556889949  1.9619398694867953   T   T   T
 15.9163889217112224 17.1565962072455420  4.7252483386958213   T   T   T
 14.5516547974102028  7.2267297134738726 11.4120627822715335   F   F   F
 15.9148905185638814 12.6368262199965802  4.7254947027205318   T   T   T
 14.5516547974102028  2.7045309019182375 11.4120627822715335   F   F   F
 10.0733325414429906 16.9413668136232332  9.5389536311758842   T   T   T
  0.0850379718339152  7.0141658028945288  2.8615498313442469   F   F   F
 10.0703752404104954 12.8497809700458880  9.5390920690045196   T   T   T
  0.0850379718339152  2.9170948124975822  2.8615498313442469   F   F   F
 10.2398611308254601  2.9170948124975822  3.8240268358323357   F   F   F
 20.2262821577634924 12.8504980799699133 10.5204635603205094   T   T   T
 10.2398611308254601  7.0141658028945288  3.8240268358323357   F   F   F
 20.2285122381490829 16.9432696777015650 10.5252983543069831   T   T   T
  7.6759138391987820 16.5519033017507340 10.5070224149194136   T   T   T
  2.4846705705810739  6.6155995192168131  3.8215753922960478   F   F   F
  7.6731130516863715 13.2445437008920823 10.5058720592150436   T   T   T
  2.4846705705810739  3.3156610961752970  3.8215753922960478   F   F   F
 12.6394937295726173  3.3156610961752970  2.8640012748805352   F   F   F
 17.8298670336585161 13.2430344171570642  9.5494609886097521   T   T   T
 12.6394937295726173  6.6155995192168131  2.8640012748805352   F   F   F
 17.8346067634866969 16.5546350690670145  9.5478914409260263   T   T   T
  8.6075165134744775 14.8973747005147494  8.6503947720532928   T   T   T
  1.5419329197154532  4.9656303076960553  1.9688022888379906   F   F   F
 11.6967560787069971  4.9656303076960553  4.7167743783385925   F   F   F
 18.7606579687293760 14.8975760901589798 11.4050004798446718   T   T   T
  6.4465378007490219 17.1759499736452454 12.7727897107363404   T   T   T
  3.7059346158871325  7.2425982351504699  6.0879969914885113   F   F   F
  6.4469359480672619 12.6185538606827290 12.7726161220395991   T   T   T
  3.7059346158871325  2.6886623802416403  6.0879969914885113   F   F   F
 13.8607577748786781  2.6886623802416403  0.5975796756880712   F   F   F
 16.6021287454030357 12.6182322070098678  7.2841208373357560   T   T   T
 13.8607577748786781  7.2425982351504699  0.5975796756880712   F   F   F
 16.6025119430437726 17.1764937365524659  7.2839595030814532   T   T   T
  5.0327242813247697 16.8154425272112817 10.5674345414012620   T   T   T
  5.1270102565117828  6.8928686523636049  3.8857134349154596   F   F   F
  5.0301701838840369 12.9738663895045132 10.5674299316659255   T   T   T
  5.1270102565117828  3.0383919630285057  3.8857134349154596   F   F   F
 15.2818334155033284  3.0383919630285057  2.7998632322611234   F   F   F
 15.1857700912614284 12.9747357387884570  9.4890144186210907   T   T   T
 15.2818334155033284  6.8928686523636049  2.7998632322611234   F   F   F
 15.1901835229610693 16.8137763458138743  9.4897115414743229   T   T   T
  6.0133857305690706 14.8971914622216790  0.6719415508852881   T   T   T
  4.1584246617385503  4.9656303076960553  7.3574447498228954   F   F   F
 14.3132478207300924  4.9656303076960553 12.6992852517067583   F   F   F
 16.1610195918089872 14.8971309674598142  6.0159674340458249   T   T   T
  3.9844250484259951 16.5274394901915045  0.0961454514296543   T   T   T
  6.1734543920290044  6.6085914233823377  6.7692293982920377   F   F   F
  3.9851408997118907 13.2680674960142344  0.0927903124099839   T   T   T
  6.1734543920290044  3.3226691920097720  6.7692293982920377   F   F   F
 16.3282775510205482  3.3226691920097720 13.2875006032377101   F   F   F
 14.1380245829365396 13.2618361142442609  6.5959548741195029   T   T   T
 16.3282775510205482  6.6085914233823377 13.2875006032377101   F   F   F
 14.1380293073878320 16.5331066061628000  6.5946362770871811   T   T   T
  1.8852385485603558 14.8980254845237781  0.2707267851813485   T   T   T
  8.2628481081252829  4.9656303076960553  6.9524502333987286   F   F   F
 18.4176712671168268  4.9656303076960553 13.1042797681310184   F   F   F
 12.0426726978558918 14.8974050856295381  6.4153558272472493   T   T   T
  1.6526117941487024 17.2792493014336834 12.5015398553711883   T   T   T
  8.5131568979229311  7.3415004446393679  5.8058209428476975   F   F   F
  1.6530583782189996 12.5194383883480054 12.4950198411547344   T   T   T
  8.5131568979229311  2.5897601707527422  5.8058209428476975   F   F   F
 18.6679800569143310  2.5897601707527422  0.8797557243288845   F   F   F
 11.8019344385310969 12.5191347509804487  7.5605699793161865   T   T   T
 18.6679800569143310  7.3415004446393679  0.8797557243288845   F   F   F
 11.8025031621888612 17.2749873780164513  7.5592451518722754   T   T   T
  2.4671658431120798 16.6815896784847233 10.0032083465780097   T   T   T
  7.6891086568283837  6.7513042184734262  3.3094339217652693   F   F   F
  2.4649740477604754 13.1100575268458801  9.9954317433482842   T   T   T
  7.6891086568283837  3.1799563969186848  3.3094339217652693   F   F   F
 17.8439318158197828  3.1799563969186848  3.3761427454113133   F   F   F
 12.6200263873473126 13.1109695187807684 10.0576537455871442   T   T   T
 17.8439318158197828  6.7513042184734262  3.3761427454113133   F   F   F
 12.6241851861432082 16.6848357048984575 10.0568561058953598   T   T   T
  4.1195328335524648 14.8963919833645821  8.9698493469823095   T   T   T
  6.0281749005281000  4.9656303076960553  2.2907179157230457   F   F   F
 16.1829980595196439  4.9656303076960553  4.3948587514535369   F   F   F
 14.2739301627705828 14.8960207008749013 11.0864857501661156   T   T   T
  8.6114921007489755  1.4146856099378582  9.1990931219956522   F   F   F
  1.5433310582425686 11.3459462253299677  2.5135164548190696   F   F   F
  8.6114921007489755  8.5165750054542517  9.1990931219956522   F   F   F
  1.5425832377907680 18.4492437267296872  2.5179755736923264   T   T   T
 11.6968494751882961 18.4489602038842442  4.1694334005052411   T   T   T
 18.7663152597405194  8.5165750054542517 10.8576368795340965   F   F   F
 11.6981542172341122 11.3459462253299677  4.1720602123575130   F   F   F
 18.7663152597405194  1.4146856099378582 10.8576368795340965   F   F   F
  6.5543253377466240  0.6425666935286518 11.2753241723876716   F   F   F
  3.6004978212449203 10.5738273089207624  4.5897475052110890   F   F   F
  6.5543253377466240  9.2886939218634588 11.2753241723876716   F   F   F
  3.6015801899206705 19.2210061486089643  4.5912416917969159   T   T   T
 13.7553447343712190 19.2208904670857805  2.0952855744221628   T   T   T
 16.7091484967381696  9.2886939218634588  8.7814058291420753   F   F   F
 13.7553209802364638 10.5738273089207624  2.0958291619654932   F   F   F
 16.7091484967381696  0.6425666935286518  8.7814058291420753   F   F   F
  5.6448362218964876  1.0320241432667694  0.8173882092636284   F   F   F
  4.5099869370950563 10.9632847586588795  7.5029648764402106   F   F   F
  5.6448362218964876  8.8992364721253416  0.8173882092636284   F   F   F
  4.5102284153130867 18.8297096195455325  7.5046332676901244   T   T   T
 14.6654075959134751 18.8313870795498524 12.5532854875568098   T   T   T
 15.7996593808880306  8.8992364721253416  5.8681884579129546   F   F   F
 14.6648100960866010 10.9632847586588795 12.5537651250895372   F   F   F
 15.7996593808880306  1.0320241432667694  5.8681884579129546   F   F   F
  2.4881439176978279  1.0483023193839807  0.6417355337127613   F   F   F
  7.6666792412937159 10.9795629347759487  7.3273122008893434   F   F   F
  2.4881439176978279  8.8829582960081304  0.6417355337127613   F   F   F
  7.6662710740813402 18.8147151833135950  7.3257183716563121   T   T   T
 17.8205454314362726 18.8154091347841792 12.7311622366856678   T   T   T
 12.6429670766893718  8.8829582960081304  6.0438411334638209   F   F   F
 17.8215024002852616 10.9795629347759487 12.7294178006404035   F   F   F
 12.6429670766893718  1.0483023193839807  6.0438411334638209   F   F   F
  1.4669611892426841  0.7765305914257938 11.0116839679886329   F   F   F
  8.6878619697488606 10.7077912068179053  4.3261073008120503   F   F   F
  1.4669611892426841  9.1547300239663159 11.0116839679886329   F   F   F
  8.6872297820869946 19.0855269730031303  4.3257115365012107   T   T   T
 18.8423675136909878 19.0857226208925574  2.3601126117865601   T   T   T
 11.6217843482342271  9.1547300239663159  9.0450460335411140   F   F   F
 18.8426851287404027 10.7077912068179053  2.3594693663645319   F   F   F
 11.6217843482342271  0.7765305914257938  9.0450460335411140   F   F   F
  4.0843573639185831  1.3979692287630687  9.5406986308418436   F   F   F
  6.0704657950729608 11.3292298441551793  2.8551219636652609   F   F   F
  4.0843573639185831  8.5332913866290419  9.5406986308418436   F   F   F
  6.0713960644358362 18.4640391668011254  2.8559014028782501   T   T   T
 16.2254416830099970 18.4644233268353304  3.8303280358279395   T   T   T
 14.2391805229101269  8.5332913866290419 10.5160313706879034   F   F   F
 16.2252889540645029 11.3292298441551793  3.8304547035113221   F   F   F
 14.2391805229101269  1.3979692287630687 10.5160313706879034   F   F   F
  8.5792837961544635 16.4408348419407169  9.1581449862175575   T   T   T
  1.5763273773718030  6.5092533948319806  2.4761345411157811   F   F   F
  8.5778285830001799 13.3539446240001247  9.1577922196446160   T   T   T
  1.5763273773718030  3.4220072205601295  2.4761345411157811   F   F   F
 11.7311505363633461  3.4220072205601295  4.2094421260608010   F   F   F
 18.7327156460183204 13.3539095152351699 10.8988276225783736   T   T   T
 11.7311505363633461  6.5092533948319806  4.2094421260608010   F   F   F
 18.7335157996086465 16.4416912016751908 10.8997290953600707   T   T   T
  6.4374139888489834 17.3688643415606876 11.1607796126452143   T   T   T
  3.7180465794847750  7.4382500466046224  4.4764479790710539   F   F   F
  6.4371705292554591 12.4247800804243589 11.1607972799496444   T   T   T
  3.7180465794847750  2.4930105687874886  4.4764479790710539   F   F   F
 13.8728697384763198  2.4930105687874886  2.2091286881055288   F   F   F
 16.5922118373332026 12.4247591224837244  8.8959634213442680   T   T   T
 13.8728697384763198  7.4382500466046224  2.2091286881055288   F   F   F
 16.5937928517465387 17.3694647198291285  8.8958713373510108   T   T   T
  5.5443356179599039 16.4382539410357040  0.5357519491231291   T   T   T
  4.6170079927443011  6.5095434530137322  7.2176998349999728   F   F   F
  5.5443581392544417 13.3562486110311198  0.5352046910188688   T   T   T
  4.6170079927443011  3.4217171623783784  7.2176998349999728   F   F   F
 14.7718311517358440  3.4217171623783784 12.8390301665297759   F   F   F
 15.6965597885377495 13.3543995485620659  6.1521987694157998   T   T   T
 14.7718311517358440  6.5095434530137322 12.8390301665297759   F   F   F
 15.6969126995931543 16.4400480735379695  6.1521456405146990   T   T   T
  2.3803017184575133 16.4440388613299362  0.3161966237406411   T   T   T
  7.7766577971384301  6.5146392987053847  6.9908051240805120   F   F   F
  2.3811028088605903 13.3521335915693502  0.3110242553067908   T   T   T
  7.7766577971384301  3.4166213166867263  6.9908051240805120   F   F   F
 17.9314809561299739  3.4166213166867263 13.0659248774492358   F   F   F
 12.5344197335268976 13.3505075196384837  6.3751258092028209   T   T   T
 17.9314809561299739  6.5146392987053847 13.0659248774492358   F   F   F
 12.5344069512914107 16.4443489024903293  6.3730622876963512   T   T   T
  1.3923356677355359 17.4903021016113804 10.9086767482076823   T   T   T
  8.7665009375840501  7.5582981210348308  4.2126116944586931   F   F   F
  1.3904296665878819 12.3036228591476853 10.9030669917125085   T   T   T
  8.7665009375840501  2.3729624943572789  4.2126116944586931   F   F   F
 18.9213240965755958  2.3729624943572789  2.4729649727178891   F   F   F
 11.5437207236554542 12.3034149059011497  9.1533555392107129   T   T   T
 18.9213240965755958  7.5582981210348308  2.4729649727178891   F   F   F
 11.5458854056674713 17.4894934088226002  9.1523821483968106   T   T   T
  3.9586149259009278 16.4471862268414917  9.4065656250305789   T   T   T
  6.1940601493177123  6.5178291587723436  2.7207962266042216   F   F   F
  3.9586241090828924 13.3449014671815789  9.4045716304860250   T   T   T
  6.1940601493177123  3.4134314566197661  2.7207962266042216   F   F   F
 16.3488833083092580  3.4134314566197661  3.9647804405723610   F   F   F
 14.1129083809916764 13.3449130927199793 10.6509847682077119   T   T   T
 16.3488833083092580  6.5178291587723436  3.9647804405723610   F   F   F
 14.1162438891907716 16.4474056232190691 10.6514455420066536   T   T   T
  6.1838975859039289 14.9922873436926380  5.5719854141189424   T   T   T
  4.4661086906863146 14.9918520148247492  2.2688025458465302   T   T   T
  3.7289426906863090 14.9918520148247492  2.2688025458465306   T   T   T
