 O Si Ir  C  O                          
   1.00000000000000     
    20.3096463179830877    0.0000000000000000    0.0000000000000000
     0.0000000000000000   19.8625212307842212    0.0000000000000000
     0.0000000000000000    0.0000000000000000   13.3711533343531652
   O    Si   Ir   C    O 
   192    96     1     1     2
Selective dynamics
Direct
  0.5025909357277101  0.0727798873228238  0.7075249800237629   F   F   F
  0.9974090642722899  0.5727798873228238  0.2075249800237629   F   F   F
  0.5025909357277101  0.4272201126771762  0.7075249800237629   F   F   F
  0.9973257813154461  0.9270151006834340  0.2074059811071223   F   F   F
  0.4975495538856194  0.9278070691638334  0.2918959208791421   F   F   F
  0.0025909357277101  0.4272201126771762  0.7924750199762371   F   F   F
  0.4974090642722899  0.5727798873228238  0.2924750199762371   F   F   F
  0.0025909357277101  0.0727798873228238  0.7924750199762371   F   F   F
  0.3868825154844515  0.0693889629433002  0.7958398315398867   F   F   F
  0.1131174845155485  0.5693889629433002  0.2958398315398867   F   F   F
  0.3868825154844515  0.4306110370566998  0.7958398315398867   F   F   F
  0.1127965859644036  0.9308704647822736  0.2960320858637218   F   F   F
  0.6133650721699340  0.9305347124592629  0.2041869868052544   F   F   F
  0.8868825154844515  0.4306110370566998  0.7041601684601133   F   F   F
  0.6131174845155485  0.5693889629433002  0.2041601684601133   F   F   F
  0.8868825154844515  0.0693889629433002  0.7041601684601133   F   F   F
  0.4023996572529711  0.1395881488352799  0.6299567877606833   F   F   F
  0.0976784279837517  0.6395683635639458  0.1299835315291418   F   F   F
  0.4023996572529711  0.3604118511647201  0.6299567877606833   F   F   F
  0.0979695790351798  0.8605908505938302  0.1299810450526806   F   F   F
  0.5978512302996322  0.8604585024433860  0.3698450786982690   F   F   F
  0.9023996572529711  0.3604118511647201  0.8700432122393167   F   F   F
  0.5985544364442958  0.6394058641543410  0.3698363549731170   F   F   F
  0.9023996572529711  0.1395881488352799  0.8700432122393167   F   F   F
  0.4045031871746829  0.0051825304987858  0.6227513228883907   F   F   F
  0.0954968128253171  0.5051825304987858  0.1227513228883836   F   F   F
  0.4045031871746829  0.4948174695012142  0.6227513228883907   F   F   F
  0.0952842235205011  0.9949064161630545  0.1227276777940460   F   F   F
  0.5957541782363478  0.9945507429603069  0.3775060484921298   F   F   F
  0.9045031871746829  0.4948174695012142  0.8772486771116093   F   F   F
  0.5954968128253171  0.5051825304987858  0.3772486771116164   F   F   F
  0.9045031871746829  0.0051825304987858  0.8772486771116093   F   F   F
  0.3244131055804047  0.0395323330820503  0.9639933782656485   F   F   F
  0.1755868944195953  0.5395323330820503  0.4639933782656414   F   F   F
  0.3244131055804047  0.4604676669179497  0.9639933782656485   F   F   F
  0.1752653088331826  0.9607395816493849  0.4638323729097564   F   F   F
  0.6755165755276593  0.9606926524931794  0.0359683563033357   F   F   F
  0.8244131055804047  0.4604676669179497  0.5360066217343515   F   F   F
  0.6755868944195953  0.5395323330820503  0.0360066217343515   F   F   F
  0.8244131055804047  0.0395323330820503  0.5360066217343515   F   F   F
  0.3255508362917610  0.9534642480493360  0.8087891250381887   F   F   F
  0.1753558411149996  0.4538071248021893  0.3088267361878323   F   F   F
  0.3246441588850004  0.5461928751978107  0.8088267361878323   F   F   F
  0.1753558411149996  0.0461928751978107  0.3088267361878323   F   F   F
  0.6753558411149996  0.0461928751978107  0.1911732638121677   F   F   F
  0.8246441588850004  0.5461928751978107  0.6911732638121677   F   F   F
  0.6753558411149996  0.4538071248021893  0.1911732638121677   F   F   F
  0.8244029524499936  0.9538459420076464  0.6912908118139072   F   F   F
  0.2554253162963604  0.0666022326352760  0.8022081905298890   F   F   F
  0.2445746837036396  0.5666022326352760  0.3022081905298890   F   F   F
  0.2554253162963604  0.4333977673647240  0.8022081905298890   F   F   F
  0.2443673687320214  0.9332581579363506  0.3018959864423820   F   F   F
  0.7448311711349476  0.9335601039722334  0.1973076525185178   F   F   F
  0.7554253162963604  0.4333977673647240  0.6977918094701110   F   F   F
  0.7445746837036396  0.5666022326352760  0.1977918094701110   F   F   F
  0.7554253162963604  0.0666022326352760  0.6977918094701110   F   F   F
  0.2915288497951138  0.1271841775282851  0.1038202525947156   F   F   F
  0.2083364661124776  0.6272121692018118  0.6035322982534339   F   F   F
  0.2915288497951138  0.3728158224717149  0.1038202525947156   F   F   F
  0.2083867598311642  0.8730262703500244  0.6031445710810033   F   F   F
  0.7086462428200875  0.8729859189150062  0.8966115903900160   F   F   F
  0.7915288497951138  0.3728158224717149  0.3961797474052844   F   F   F
  0.7084575859773210  0.6272514769482953  0.8964641383021998   F   F   F
  0.7915288497951138  0.1271841775282851  0.3961797474052844   F   F   F
  0.2010413266345239  0.0428271635220199  0.0290771958813778   F   F   F
  0.2989586733654761  0.5428271635220199  0.5290771958813778   F   F   F
  0.2010413266345239  0.4571728364779801  0.0290771958813778   F   F   F
  0.2986152712323786  0.9580061317410724  0.5282503426336902   F   F   F
  0.7989713554198872  0.9576115045518634  0.9711184080879391   F   F   F
  0.7010413266345239  0.4571728364779801  0.4709228041186222   F   F   F
  0.7989586733654761  0.5428271635220199  0.9709228041186222   F   F   F
  0.7010413266345239  0.0428271635220199  0.4709228041186222   F   F   F
  0.2968895493308423  0.9978563749150382  0.1470275059927886   F   F   F
  0.2031104506691577  0.4978563749150382  0.6470275059927815   F   F   F
  0.2968895493308423  0.5021436250849618  0.1470275059927886   F   F   F
  0.2031104506691577  0.0021436250849618  0.6470275059927815   F   F   F
  0.7031104506691577  0.0021436250849618  0.8529724940072185   F   F   F
  0.7968895493308423  0.5021436250849618  0.3529724940072114   F   F   F
  0.7031104506691577  0.4978563749150382  0.8529724940072185   F   F   F
  0.7968895493308423  0.9978563749150382  0.3529724940072114   F   F   F
  0.1089942560051327  0.1267462740242564  0.0958674480733634   F   F   F
  0.3901303388926181  0.6261726597874429  0.5976826845082854   F   F   F
  0.1089942560051327  0.3732537259757436  0.0958674480733634   F   F   F
  0.3895531498250620  0.8745552122705931  0.5971354532928927   F   F   F
  0.8905959053535497  0.8733151458890873  0.9040255480349728   F   F   F
  0.6089942560051327  0.3732537259757436  0.4041325519266366   F   F   F
  0.8908954841570846  0.6267312070030968  0.9039223675609023   F   F   F
  0.6089942560051327  0.1267462740242564  0.4041325519266366   F   F   F
  0.0831228757301545  0.0463555586530404  0.9432954022258713   F   F   F
  0.4168771242698455  0.5463555586530404  0.4432954022258713   F   F   F
  0.0831228757301545  0.4536444413469596  0.9432954022258713   F   F   F
  0.4169468408165358  0.9539922604413178  0.4430670200910782   F   F   F
  0.9166540405843762  0.9534403244402370  0.0570005518475654   F   F   F
  0.5831228757301545  0.4536444413469596  0.5567045977741287   F   F   F
  0.9168771242698455  0.5463555586530404  0.0567045977741287   F   F   F
  0.5831228757301545  0.0463555586530404  0.5567045977741287   F   F   F
  0.1289595153762306  0.0794086100630622  0.7630589808606629   F   F   F
  0.3710404846237694  0.5794086100630622  0.2630589808606629   F   F   F
  0.1289595153762306  0.4205913899369378  0.7630589808606629   F   F   F
  0.3708646717927593  0.9206505867312913  0.2630277711210951   F   F   F
  0.8710662736742805  0.9204279535416831  0.2376100179076204   F   F   F
  0.6289595153762306  0.4205913899369378  0.7369410191393371   F   F   F
  0.8710404846237694  0.5794086100630622  0.2369410191393371   F   F   F
  0.6289595153762306  0.0794086100630622  0.7369410191393371   F   F   F
  0.0734927677531729  0.9602906673579383  0.7910161295664011   F   F   F
  0.4264236799621770  0.4603034831418356  0.2908788493740602   F   F   F
  0.0735763200378230  0.5396965168581644  0.7908788493740531   F   F   F
  0.4264236799621770  0.0396965168581644  0.2908788493740602   F   F   F
  0.9264236799621770  0.0396965168581644  0.2091211506259398   F   F   F
  0.5735763200378230  0.5396965168581644  0.7091211506259469   F   F   F
  0.9264236799621770  0.4603034831418356  0.2091211506259398   F   F   F
  0.5725796120709177  0.9601671015566211  0.7092378345505637   F   F   F
  0.2164898181671191  0.1361625178643777  0.6465161981987251   F   F   F
  0.2833187914016690  0.6355221882708761  0.1455455257959883   F   F   F
  0.2164898181671191  0.3638374821356223  0.6465161981987251   F   F   F
  0.2835161756691207  0.8643180320864943  0.1453269536446840   F   F   F
  0.7823354943875529  0.8640732823177260  0.3536397213617875   F   F   F
  0.7164898181671191  0.3638374821356223  0.8534838018012749   F   F   F
  0.7826810345108939  0.6359150806128397  0.3537516374951508   F   F   F
  0.7164898181671191  0.1361625178643777  0.8534838018012749   F   F   F
  0.4959313802857892  0.8513601577317331  0.7126008022639994   F   F   F
  0.0041870730047435  0.3531357233755159  0.2140092002379745   F   F   F
  0.4965749994759392  0.6487215262459358  0.7126244491799127   F   F   F
  0.0041870730047435  0.1468642766244841  0.2140092002379745   F   F   F
  0.5041870730047435  0.1468642766244841  0.2859907997620255   F   F   F
  0.9959602979488480  0.6470428408477247  0.7862916750528797   F   F   F
  0.5041870730047435  0.3531357233755159  0.2859907997620255   F   F   F
  0.9955948880798360  0.8532341477889105  0.7863206576562263   F   F   F
  0.3771005683773865  0.8309123783585193  0.7841735324484986   F   F   F
  0.1223394308142645  0.3330694750354013  0.2858074615356969   F   F   F
  0.3779235823120928  0.6685114913377319  0.7850724894423848   F   F   F
  0.1223394308142645  0.1669305249645987  0.2858074615356969   F   F   F
  0.6223394308142645  0.1669305249645987  0.2141925384643031   F   F   F
  0.8779867677191149  0.6666866218341312  0.7136871711289743   F   F   F
  0.6223394308142645  0.3330694750354013  0.2141925384643031   F   F   F
  0.8773412662122766  0.8332685625452640  0.7139669765827179   F   F   F
  0.4241787576388276  0.7501080110140279  0.6386980191570615   F   F   F
  0.0759212098317121  0.2500000000000000  0.1472425182485750   F   F   F
  0.5759212098317121  0.2500000000000000  0.3527574817514250   F   F   F
  0.9236101223479238  0.7500598975042720  0.8524578717376912   F   F   F
  0.3179182020702740  0.8638005671180125  0.9541402431104871   F   F   F
  0.1824716471111429  0.3646363999312143  0.4553082923555465   F   F   F
  0.3178654942828913  0.6357356631629614  0.9543794805346479   F   F   F
  0.1824716471111429  0.1353636000687857  0.4553082923555465   F   F   F
  0.6824716471111429  0.1353636000687857  0.0446917076444535   F   F   F
  0.8162841572684485  0.6351580416736766  0.5447366068488151   F   F   F
  0.6824716471111429  0.3646363999312143  0.0446917076444535   F   F   F
  0.8159167685453994  0.8649433837674323  0.5447334664950176   F   F   F
  0.2474794481411919  0.8472072252085923  0.7894443710262493   F   F   F
  0.2524421241138057  0.3470288878372898  0.2906042087582890   F   F   F
  0.2482335695799307  0.6535832458940547  0.7891980720904499   F   F   F
  0.2524421241138057  0.1529711121627102  0.2906042087582890   F   F   F
  0.7524421241138057  0.1529711121627102  0.2093957912417110   F   F   F
  0.7478284100909534  0.6533711822606350  0.7100231403153785   F   F   F
  0.7524421241138057  0.3470288878372898  0.2093957912417110   F   F   F
  0.7470535882516742  0.8471224098757730  0.7096290770375617   F   F   F
  0.2955753224964397  0.7498387641392341  0.0496526299544158   F   F   F
  0.2047512101703362  0.2500000000000000  0.5502475789369754   F   F   F
  0.7047512101703362  0.2500000000000000  0.9497524210630175   F   F   F
  0.7972469744507720  0.7500398293210324  0.4489840230472879   F   F   F
  0.1963400780131437  0.8325167835435678  0.0056202138343906   F   F   F
  0.3039666124841744  0.3327166449111161  0.5062562090960796   F   F   F
  0.1962654158118227  0.6672997701745444  0.0056508669949622   F   F   F
  0.3039666124841744  0.1672833550888839  0.5062562090960796   F   F   F
  0.8039666124841744  0.1672833550888839  0.9937437909039204   F   F   F
  0.6954903731588047  0.6716348200063038  0.4929871186928807   F   F   F
  0.8039666124841744  0.3327166449111161  0.9937437909039204   F   F   F
  0.6951735135008406  0.8283395333022270  0.4925830187568678   F   F   F
  0.0932885584332652  0.7500260328549260  0.0203562596331750   F   F   F
  0.4068435254241223  0.2500000000000000  0.5199589040338424   F   F   F
  0.9068435254241223  0.2500000000000000  0.9800410959661576   F   F   F
  0.5882286569613555  0.7498655437298183  0.4816187253808124   F   F   F
  0.0810040787263446  0.8694067651704316  0.9342777309364152   F   F   F
  0.4191681511649463  0.3696157380695979  0.4342049483443873   F   F   F
  0.0809510031036567  0.6304462219118392  0.9344951691180938   F   F   F
  0.4191681511649463  0.1303842619304021  0.4342049483443873   F   F   F
  0.9191681511649392  0.1303842619304021  0.0657950516556127   F   F   F
  0.5817497737001531  0.6298282656797838  0.5656259812063524   F   F   F
  0.9191681511649392  0.3696157380695979  0.0657950516556127   F   F   F
  0.5816066496734038  0.8697877340597557  0.5660181190110976   F   F   F
  0.1211570765558250  0.8400935222109709  0.7471292685799966   F   F   F
  0.3785939221413273  0.3399016741142518  0.2475054947775277   F   F   F
  0.1216337650099391  0.6600196870991581  0.7478854040899350   F   F   F
  0.3785939221413273  0.1600983258857482  0.2475054947775277   F   F   F
  0.8785939221413201  0.1600983258857482  0.2524945052224723   F   F   F
  0.6216705034728278  0.6601632195693412  0.7525719962808139   F   F   F
  0.8785939221413201  0.3399016741142518  0.2524945052224723   F   F   F
  0.6210670433631975  0.8401054247754161  0.7534667804486261   F   F   F
  0.2027315566353636  0.7502130240433544  0.6704727517507010   F   F   F
  0.2968133864148328  0.2500000000000000  0.1713179004415224   F   F   F
  0.7968133864148328  0.2500000000000000  0.3286820995584776   F   F   F
  0.7029076378772601  0.7502074839708328  0.8293756228939984   F   F   F
  0.4240099490616913  0.0712238689892644  0.6879805273312769   F   F   F
  0.0759900509383087  0.5712238689892644  0.1879805273312769   F   F   F
  0.4240099490616913  0.4287761310107356  0.6879805273312769   F   F   F
  0.0759498847579820  0.9288029082310629  0.1880529264335067   F   F   F
  0.5758534803165247  0.9287430170784887  0.3116857196011154   F   F   F
  0.9240099490616913  0.4287761310107356  0.8120194726687231   F   F   F
  0.5759900509383087  0.5712238689892644  0.3120194726687231   F   F   F
  0.9240099490616913  0.0712238689892644  0.8120194726687231   F   F   F
  0.3227198167376812  0.0323507114762833  0.8432574132120010   F   F   F
  0.1772801832623188  0.5323507114762833  0.3432574132120010   F   F   F
  0.3227198167376812  0.4676492885237167  0.8432574132120010   F   F   F
  0.1772522537607841  0.9676323782597933  0.3430354913230147   F   F   F
  0.6773297898568416  0.9677049209481012  0.1567386015998196   F   F   F
  0.8227198167376812  0.4676492885237167  0.6567425867879990   F   F   F
  0.6772801832623188  0.5323507114762833  0.1567425867879990   F   F   F
  0.8227198167376812  0.0323507114762833  0.6567425867879990   F   F   F
  0.2779386767015382  0.0519583657721796  0.0611307184073340   F   F   F
  0.2220613232984618  0.5519583657721796  0.5611307184073340   F   F   F
  0.2779386767015382  0.4480416342278204  0.0611307184073340   F   F   F
  0.2218312338788380  0.9483172836089651  0.5606948482956682   F   F   F
  0.7221782955580736  0.9482993369332107  0.9390904018982269   F   F   F
  0.7779386767015382  0.4480416342278204  0.4388692815926660   F   F   F
  0.7220613232984618  0.5519583657721796  0.9388692815926660   F   F   F
  0.7779386767015382  0.0519583657721796  0.4388692815926660   F   F   F
  0.1225104503909904  0.0527779080613016  0.0479940299588080   F   F   F
  0.3774895496090096  0.5527779080612945  0.5479940299588080   F   F   F
  0.1225104503909904  0.4472220919386984  0.0479940299588080   F   F   F
  0.3770171754826990  0.9481688517026186  0.5469277156263459   F   F   F
  0.8774413086412451  0.9472859640781621  0.9521673177635677   F   F   F
  0.6225104503909904  0.4472220919386984  0.4520059700411920   F   F   F
  0.8774895496090096  0.5527779080612945  0.9520059700411920   F   F   F
  0.6225104503909904  0.0527779080613016  0.4520059700411920   F   F   F
  0.0722297752641694  0.0390952680378902  0.8235403254031510   F   F   F
  0.4277702247358306  0.5390952680378902  0.3235403254031510   F   F   F
  0.0722297752641694  0.4609047319621098  0.8235403254031510   F   F   F
  0.4277412489797783  0.9606844209908445  0.3230231059287689   F   F   F
  0.9276891739663711  0.9607913458354815  0.1767652291795514   F   F   F
  0.5722297752641694  0.4609047319621098  0.6764596745968490   F   F   F
  0.9277702247358306  0.5390952680378902  0.1764596745968490   F   F   F
  0.5722297752641694  0.0390952680378902  0.6764596745968490   F   F   F
  0.2011043077742869  0.0703822647950858  0.7135284737427909   F   F   F
  0.2988956922257131  0.5703822647950858  0.2135284737427909   F   F   F
  0.2011043077742869  0.4296177352049142  0.7135284737427909   F   F   F
  0.2988561759786563  0.9294293802667397  0.2134050332071453   F   F   F
  0.7987339601421866  0.9296137764316583  0.2865112307044555   F   F   F
  0.7011043077742869  0.4296177352049142  0.7864715262572091   F   F   F
  0.7988956922257131  0.5703822647950858  0.2864715262572091   F   F   F
  0.7011043077742869  0.0703822647950858  0.7864715262572091   F   F   F
  0.4219128218977914  0.8286326472797896  0.6839342846976635   F   F   F
  0.0776147133579599  0.3277153649932174  0.1851848138450478   F   F   F
  0.4225378571619913  0.6718232031759754  0.6846996158913896   F   F   F
  0.0776147133579599  0.1722846350067826  0.1851848138450478   F   F   F
  0.5776147133579599  0.1722846350067826  0.3148151861549522   F   F   F
  0.9224196313699125  0.6722886203755181  0.8147275924894615   F   F   F
  0.5776147133579599  0.3277153649932174  0.3148151861549522   F   F   F
  0.9220957364851472  0.8278303162884271  0.8147564852608369   F   F   F
  0.3168604358526181  0.8740340680789060  0.8339700591078909   F   F   F
  0.1830680121786585  0.3744867008663704  0.3347839836351412   F   F   F
  0.3171201792534930  0.6257985033063918  0.8341557704377607   F   F   F
  0.1830680121786585  0.1255132991336296  0.3347839836351412   F   F   F
  0.6830680121786585  0.1255132991336296  0.1652160163648588   F   F   F
  0.8169161270360874  0.6255094304855433  0.6652732725338524   F   F   F
  0.6830680121786585  0.3744867008663704  0.1652160163648588   F   F   F
  0.8164113113865454  0.8745947126506408  0.6652806945364631   F   F   F
  0.2730422739836555  0.8274588888727834  0.0394561422621749   F   F   F
  0.2273307924942145  0.3277299682844301  0.5397963552221228   F   F   F
  0.2729679009503982  0.6722121320815546  0.0395752647630232   F   F   F
  0.2273307924942145  0.1722700317155699  0.5397963552221228   F   F   F
  0.7273307924942145  0.1722700317155699  0.9602036447778772   F   F   F
  0.7725516701458872  0.6729782996814819  0.4598341187468193   F   F   F
  0.7273307924942145  0.3277299682844301  0.9602036447778772   F   F   F
  0.7722751588328052  0.8270071223816728  0.4597508386541591   F   F   F
  0.1174840042799730  0.8279156169832547  0.0230531894319412   F   F   F
  0.3829046392724536  0.3279865241180246  0.5228273843902258   F   F   F
  0.1174160163473630  0.6721046285318764  0.0230894212641957   F   F   F
  0.3829046392724536  0.1720134758819754  0.5228273843902258   F   F   F
  0.8829046392724536  0.1720134758819754  0.9771726156097742   F   F   F
  0.6164756564279799  0.6724349622352150  0.4765407180904262   F   F   F
  0.8829046392724536  0.3279865241180246  0.9771726156097742   F   F   F
  0.6161067877736883  0.8274343843175700  0.4764710928910816   F   F   F
  0.0682362456208665  0.8805386564412601  0.8153123629913495   F   F   F
  0.4316422255872467  0.3805306503245163  0.3150522314059216   F   F   F
  0.0684733216641717  0.6194588087472681  0.8154317845439749   F   F   F
  0.4316422255872467  0.1194693496754837  0.3150522314059216   F   F   F
  0.9316422255872467  0.1194693496754837  0.1849477685940784   F   F   F
  0.5690447327784725  0.6194433304293980  0.6847283426067889   F   F   F
  0.9316422255872467  0.3805306503245163  0.1849477685940784   F   F   F
  0.5684716258623368  0.8804528314793316  0.6849931270630805   F   F   F
  0.1946181471269171  0.8283632676015102  0.7026188655991916   F   F   F
  0.3049811923033445  0.3281471210548332  0.2034825387585641   F   F   F
  0.1949088806132480  0.6720973233182761  0.7028542645734390   F   F   F
  0.3049811923033445  0.1718528789451668  0.2034825387585641   F   F   F
  0.8049811923033445  0.1718528789451668  0.2965174612414359   F   F   F
  0.6952532177003761  0.6720941776391527  0.7970606352315173   F   F   F
  0.8049811923033445  0.3281471210548332  0.2965174612414359   F   F   F
  0.6948529582731524  0.8283453757525905  0.7972119094380048   F   F   F
  0.4430802448036175  0.7499935697039675  0.4589627999613057   F   F   F
  0.3700464153822765  0.7503911476629384  0.3790878662689039   T   T   T
  0.3191051498639581  0.7506825456412543  0.3378278595933679   T   T   T
  0.4528939307774991  0.7501513858436866  0.3172042380464389   T   T   T
 
  0.00000000E+00  0.00000000E+00  0.00000000E+00
  0.00000000E+00  0.00000000E+00  0.00000000E+00
  0.00000000E+00  0.00000000E+00  0.00000000E+00
  0.00000000E+00  0.00000000E+00  0.00000000E+00
  0.00000000E+00  0.00000000E+00  0.00000000E+00
  0.00000000E+00  0.00000000E+00  0.00000000E+00
  0.00000000E+00  0.00000000E+00  0.00000000E+00
  0.00000000E+00  0.00000000E+00  0.00000000E+00
  0.00000000E+00  0.00000000E+00  0.00000000E+00
  0.00000000E+00  0.00000000E+00  0.00000000E+00
  0.00000000E+00  0.00000000E+00  0.00000000E+00
  0.00000000E+00  0.00000000E+00  0.00000000E+00
  0.00000000E+00  0.00000000E+00  0.00000000E+00
  0.00000000E+00  0.00000000E+00  0.00000000E+00
  0.00000000E+00  0.00000000E+00  0.00000000E+00
  0.00000000E+00  0.00000000E+00  0.00000000E+00
  0.00000000E+00  0.00000000E+00  0.00000000E+00
  0.00000000E+00  0.00000000E+00  0.00000000E+00
  0.00000000E+00  0.00000000E+00  0.00000000E+00
  0.00000000E+00  0.00000000E+00  0.00000000E+00
  0.00000000E+00  0.00000000E+00  0.00000000E+00
  0.00000000E+00  0.00000000E+00  0.00000000E+00
  0.00000000E+00  0.00000000E+00  0.00000000E+00
  0.00000000E+00  0.00000000E+00  0.00000000E+00
  0.00000000E+00  0.00000000E+00  0.00000000E+00
  0.00000000E+00  0.00000000E+00  0.00000000E+00
  0.00000000E+00  0.00000000E+00  0.00000000E+00
  0.00000000E+00  0.00000000E+00  0.00000000E+00
  0.00000000E+00  0.00000000E+00  0.00000000E+00
  0.00000000E+00  0.00000000E+00  0.00000000E+00
  0.00000000E+00  0.00000000E+00  0.00000000E+00
  0.00000000E+00  0.00000000E+00  0.00000000E+00
  0.00000000E+00  0.00000000E+00  0.00000000E+00
  0.00000000E+00  0.00000000E+00  0.00000000E+00
  0.00000000E+00  0.00000000E+00  0.00000000E+00
  0.00000000E+00  0.00000000E+00  0.00000000E+00
  0.00000000E+00  0.00000000E+00  0.00000000E+00
  0.00000000E+00  0.00000000E+00  0.00000000E+00
  0.00000000E+00  0.00000000E+00  0.00000000E+00
  0.00000000E+00  0.00000000E+00  0.00000000E+00
  0.00000000E+00  0.00000000E+00  0.00000000E+00
  0.00000000E+00  0.00000000E+00  0.00000000E+00
  0.00000000E+00  0.00000000E+00  0.00000000E+00
  0.00000000E+00  0.00000000E+00  0.00000000E+00
  0.00000000E+00  0.00000000E+00  0.00000000E+00
  0.00000000E+00  0.00000000E+00  0.00000000E+00
  0.00000000E+00  0.00000000E+00  0.00000000E+00
  0.00000000E+00  0.00000000E+00  0.00000000E+00
  0.00000000E+00  0.00000000E+00  0.00000000E+00
  0.00000000E+00  0.00000000E+00  0.00000000E+00
  0.00000000E+00  0.00000000E+00  0.00000000E+00
  0.00000000E+00  0.00000000E+00  0.00000000E+00
  0.00000000E+00  0.00000000E+00  0.00000000E+00
  0.00000000E+00  0.00000000E+00  0.00000000E+00
  0.00000000E+00  0.00000000E+00  0.00000000E+00
  0.00000000E+00  0.00000000E+00  0.00000000E+00
  0.00000000E+00  0.00000000E+00  0.00000000E+00
  0.00000000E+00  0.00000000E+00  0.00000000E+00
  0.00000000E+00  0.00000000E+00  0.00000000E+00
  0.00000000E+00  0.00000000E+00  0.00000000E+00
  0.00000000E+00  0.00000000E+00  0.00000000E+00
  0.00000000E+00  0.00000000E+00  0.00000000E+00
  0.00000000E+00  0.00000000E+00  0.00000000E+00
  0.00000000E+00  0.00000000E+00  0.00000000E+00
  0.00000000E+00  0.00000000E+00  0.00000000E+00
  0.00000000E+00  0.00000000E+00  0.00000000E+00
  0.00000000E+00  0.00000000E+00  0.00000000E+00
  0.00000000E+00  0.00000000E+00  0.00000000E+00
  0.00000000E+00  0.00000000E+00  0.00000000E+00
  0.00000000E+00  0.00000000E+00  0.00000000E+00
  0.00000000E+00  0.00000000E+00  0.00000000E+00
  0.00000000E+00  0.00000000E+00  0.00000000E+00
  0.00000000E+00  0.00000000E+00  0.00000000E+00
  0.00000000E+00  0.00000000E+00  0.00000000E+00
  0.00000000E+00  0.00000000E+00  0.00000000E+00
  0.00000000E+00  0.00000000E+00  0.00000000E+00
  0.00000000E+00  0.00000000E+00  0.00000000E+00
  0.00000000E+00  0.00000000E+00  0.00000000E+00
  0.00000000E+00  0.00000000E+00  0.00000000E+00
  0.00000000E+00  0.00000000E+00  0.00000000E+00
  0.00000000E+00  0.00000000E+00  0.00000000E+00
  0.00000000E+00  0.00000000E+00  0.00000000E+00
  0.00000000E+00  0.00000000E+00  0.00000000E+00
  0.00000000E+00  0.00000000E+00  0.00000000E+00
  0.00000000E+00  0.00000000E+00  0.00000000E+00
  0.00000000E+00  0.00000000E+00  0.00000000E+00
  0.00000000E+00  0.00000000E+00  0.00000000E+00
  0.00000000E+00  0.00000000E+00  0.00000000E+00
  0.00000000E+00  0.00000000E+00  0.00000000E+00
  0.00000000E+00  0.00000000E+00  0.00000000E+00
  0.00000000E+00  0.00000000E+00  0.00000000E+00
  0.00000000E+00  0.00000000E+00  0.00000000E+00
  0.00000000E+00  0.00000000E+00  0.00000000E+00
  0.00000000E+00  0.00000000E+00  0.00000000E+00
  0.00000000E+00  0.00000000E+00  0.00000000E+00
  0.00000000E+00  0.00000000E+00  0.00000000E+00
  0.00000000E+00  0.00000000E+00  0.00000000E+00
  0.00000000E+00  0.00000000E+00  0.00000000E+00
  0.00000000E+00  0.00000000E+00  0.00000000E+00
  0.00000000E+00  0.00000000E+00  0.00000000E+00
  0.00000000E+00  0.00000000E+00  0.00000000E+00
  0.00000000E+00  0.00000000E+00  0.00000000E+00
  0.00000000E+00  0.00000000E+00  0.00000000E+00
  0.00000000E+00  0.00000000E+00  0.00000000E+00
  0.00000000E+00  0.00000000E+00  0.00000000E+00
  0.00000000E+00  0.00000000E+00  0.00000000E+00
  0.00000000E+00  0.00000000E+00  0.00000000E+00
  0.00000000E+00  0.00000000E+00  0.00000000E+00
  0.00000000E+00  0.00000000E+00  0.00000000E+00
  0.00000000E+00  0.00000000E+00  0.00000000E+00
  0.00000000E+00  0.00000000E+00  0.00000000E+00
  0.00000000E+00  0.00000000E+00  0.00000000E+00
  0.00000000E+00  0.00000000E+00  0.00000000E+00
  0.00000000E+00  0.00000000E+00  0.00000000E+00
  0.00000000E+00  0.00000000E+00  0.00000000E+00
  0.00000000E+00  0.00000000E+00  0.00000000E+00
  0.00000000E+00  0.00000000E+00  0.00000000E+00
  0.00000000E+00  0.00000000E+00  0.00000000E+00
  0.00000000E+00  0.00000000E+00  0.00000000E+00
  0.00000000E+00  0.00000000E+00  0.00000000E+00
  0.00000000E+00  0.00000000E+00  0.00000000E+00
  0.00000000E+00  0.00000000E+00  0.00000000E+00
  0.00000000E+00  0.00000000E+00  0.00000000E+00
  0.00000000E+00  0.00000000E+00  0.00000000E+00
  0.00000000E+00  0.00000000E+00  0.00000000E+00
  0.00000000E+00  0.00000000E+00  0.00000000E+00
  0.00000000E+00  0.00000000E+00  0.00000000E+00
  0.00000000E+00  0.00000000E+00  0.00000000E+00
  0.00000000E+00  0.00000000E+00  0.00000000E+00
  0.00000000E+00  0.00000000E+00  0.00000000E+00
  0.00000000E+00  0.00000000E+00  0.00000000E+00
  0.00000000E+00  0.00000000E+00  0.00000000E+00
  0.00000000E+00  0.00000000E+00  0.00000000E+00
  0.00000000E+00  0.00000000E+00  0.00000000E+00
  0.00000000E+00  0.00000000E+00  0.00000000E+00
  0.00000000E+00  0.00000000E+00  0.00000000E+00
  0.00000000E+00  0.00000000E+00  0.00000000E+00
  0.00000000E+00  0.00000000E+00  0.00000000E+00
  0.00000000E+00  0.00000000E+00  0.00000000E+00
  0.00000000E+00  0.00000000E+00  0.00000000E+00
  0.00000000E+00  0.00000000E+00  0.00000000E+00
  0.00000000E+00  0.00000000E+00  0.00000000E+00
  0.00000000E+00  0.00000000E+00  0.00000000E+00
  0.00000000E+00  0.00000000E+00  0.00000000E+00
  0.00000000E+00  0.00000000E+00  0.00000000E+00
  0.00000000E+00  0.00000000E+00  0.00000000E+00
  0.00000000E+00  0.00000000E+00  0.00000000E+00
  0.00000000E+00  0.00000000E+00  0.00000000E+00
  0.00000000E+00  0.00000000E+00  0.00000000E+00
  0.00000000E+00  0.00000000E+00  0.00000000E+00
  0.00000000E+00  0.00000000E+00  0.00000000E+00
  0.00000000E+00  0.00000000E+00  0.00000000E+00
  0.00000000E+00  0.00000000E+00  0.00000000E+00
  0.00000000E+00  0.00000000E+00  0.00000000E+00
  0.00000000E+00  0.00000000E+00  0.00000000E+00
  0.00000000E+00  0.00000000E+00  0.00000000E+00
  0.00000000E+00  0.00000000E+00  0.00000000E+00
  0.00000000E+00  0.00000000E+00  0.00000000E+00
  0.00000000E+00  0.00000000E+00  0.00000000E+00
  0.00000000E+00  0.00000000E+00  0.00000000E+00
  0.00000000E+00  0.00000000E+00  0.00000000E+00
  0.00000000E+00  0.00000000E+00  0.00000000E+00
  0.00000000E+00  0.00000000E+00  0.00000000E+00
  0.00000000E+00  0.00000000E+00  0.00000000E+00
  0.00000000E+00  0.00000000E+00  0.00000000E+00
  0.00000000E+00  0.00000000E+00  0.00000000E+00
  0.00000000E+00  0.00000000E+00  0.00000000E+00
  0.00000000E+00  0.00000000E+00  0.00000000E+00
  0.00000000E+00  0.00000000E+00  0.00000000E+00