 O Si Zn  H 
 1.0000000000000000
    20.3096463179830877    0.0000000000000000    0.0000000000000000
     0.0000000000000000   19.8625212307842212    0.0000000000000000
     0.0000000000000000    0.0000000000000000   13.3711533343531652
 O   Si  Zn  H  
 192  96   1   2
Selective dynamics
Cartesian
 10.2074441472539608  1.4455920571236711  9.4604249957828941   F   F   F
 20.2570253297206690 11.3768526725157813  2.7748483286063115   F   F   F
 10.2074441472539608  8.4856685582684399  9.4604249957828941   F   F   F
 20.2561826621358421 18.4165997893909186  2.7765456130796338   F   F   F
 10.1024052685205881 18.4164025293312434  3.9110776816144899   F   F   F
  0.0526209882624183  8.4856685582684399 10.5963050057468546   F   F   F
 10.1022021707291270 11.3768526725157813  3.9107283385702711   F   F   F
  0.0526209882624183  1.4455920571236711 10.5963050057468546   F   F   F
  7.8574470561008258  1.3782397496433998 10.6412964171056164   F   F   F
  2.2973761028907185 11.3095003650355110  3.9557197499290346   F   F   F
  7.8574470561008258  8.5530208657487101 10.6412964171056164   F   F   F
  2.2952243502753973 18.4876909518984789  3.9605786278722617   F   F   F
 12.4503132042079869 18.4876801738348355  2.7262076357734020   F   F   F
 18.0122702150923679  8.5530208657487101  9.4154335844241306   F   F   F
 12.4521992618822619 11.3095003650355110  2.7298569172475480   F   F   F
 18.0122702150923679  1.3782397496433998  9.4154335844241306   F   F   F
  8.1725947172854614  2.7725725698066146  8.4232488031646700   F   F   F
  1.9839610827494509 12.7054864753046068  1.7412922442760974   F   F   F
  8.1725947172854614  7.1586880455854951  8.4232488031646700   F   F   F
  1.9847248944611675 17.0873573969101429  1.7489429205403675   F   F   F
 12.1399590114137688 17.0883342828520952  4.9397658505502271   F   F   F
 18.3274178762770035  7.1586880455854951 11.6334811983650788   F   F   F
 12.1383228529533493 12.7051936185620775  4.9445970931556298   F   F   F
 18.3274178762770035  2.7725725698066146 11.6334811983650788   F   F   F
  8.2153166660147221  0.1029381220613197  8.3269034275119509   F   F   F
  1.9395064929768218 10.0341987374534298  1.6413267603352724   F   F   F
  8.2153166660147221  9.8283224933307913  8.3269034275119509   F   F   F
  1.9398272249348114 19.7577902598064981  1.6407576011818295   F   F   F
 12.0957052832660015 19.7579444839593314  5.0450647235234518   F   F   F
 18.3701398250062660  9.8283224933307913 11.7298265740177978   F   F   F
 12.0943296519683656 10.0341987374534298  5.0442499068413102   F   F   F
 18.3701398250062660  0.1029381220613197 11.7298265740177978   F   F   F
  6.5887154352565247  0.7852118051446575 12.8897032740910973   F   F   F
  3.5661077237350187 10.7164724205367676  6.2041266069144205   F   F   F
  6.5887154352565247  9.1460488102474535 12.8897032740910973   F   F   F
  3.5680615177875366 19.0767538113239681  6.2048546350525502   F   F   F
 13.7226735936425630 19.0775735718068802  0.4806936430548845   F   F   F
 16.7435385942480686  9.1460488102474535  7.1670267274386505   F   F   F
 13.7209308827265630 10.7164724205367676  0.4814500602620672   F   F   F
 16.7435385942480686  0.7852118051446575  7.1670267274386505   F   F   F
  6.5890701932695084 18.9450853625374407 10.8133804723272178   F   F   F
  3.5614151128380791  9.0137536510646292  4.1293696433153393   F   F   F
  6.5934080461534652 10.8487675797195919 10.8149463104919210   F   F   F
  3.5614151128380791  0.9175069643274809  4.1293696433153393   F   F   F
 13.7162382718296225  0.9175069643274809  2.5562070238612433   F   F   F
 16.7482312051450108 10.8487675797195919  9.2417836910378259   F   F   F
 13.7162382718296225  9.0137536510646292  2.5562070238612433   F   F   F
 16.7439359464206809 18.9456519213966246  9.2438289290553044   F   F   F
  5.1875978346380416  1.3228882597357992 10.7264487216491453   F   F   F
  4.9672253243535023 11.2541488751279086  4.0408720544725618   F   F   F
  5.1875978346380416  8.6083723556563125 10.7264487216491453   F   F   F
  4.9670324257071421 18.5379118161209853  4.0405892791283771   F   F   F
 15.1218578819970553 18.5394179242014481  2.6449019700711087   F   F   F
 15.3424209936295863  8.6083723556563125  9.3302812798806034   F   F   F
 15.1220484833450453 11.2541488751279086  2.6447046127040204   F   F   F
 15.3424209936295863  1.3228882597357992  9.3302812798806034   F   F   F
  5.9208478308271770  2.5261984263753923  1.3881965166552193   F   F   F
  4.2310535086728276 12.4566289907471468  8.0742865081536213   F   F   F
  5.9208478308271770  7.4050621890167188  1.3881965166552193   F   F   F
  4.2290046780184962 17.3369434215470690  8.0762943327890415   F   F   F
 14.3921914815742760 17.3370625066099677 11.9825928702625717   F   F   F
 16.0756709898187218  7.4050621890167188  5.2973801505213629   F   F   F
 14.3865011479003435 12.4564924278026261 11.9830670075753556   F   F   F
 16.0756709898187218  2.5261984263753923  5.2973801505213629   F   F   F
  4.0830782392452933  0.8506554447103878  0.3887956446629249   F   F   F
  6.0717449197462505 10.7819160601024979  7.0743723118395074   F   F   F
  4.0830782392452933  9.0806051706817232  0.3887956446629249   F   F   F
  6.0713801563902967 19.0118098449053718  7.0776273823923201   F   F   F
 16.2272222762627081 19.0161874825354467 12.9836139637935339   F   F   F
 14.2379013982368381  9.0806051706817232  6.2967810225136578   F   F   F
 16.2265680787377953 10.7819160601024979 12.9823576896902395   F   F   F
 14.2379013982368381  0.8506554447103878  6.2967810225136578   F   F   F
  6.0297217424147993 19.8199434320233259  1.9659273269971054   F   F   F
  4.1251014165767446  9.8886828166312153  8.6515039941735932   F   F   F
  6.0297217424147993  9.9738384141530059  1.9659273269971054   F   F   F
  4.1251014165767446  0.0425777987608954  8.6515039941735932   F   F   F
 14.2799245755682875  0.0425777987608954 11.4052260073561555   F   F   F
 16.1845449014063441  9.9738384141530059  4.7196493401794779   F   F   F
 14.2799245755682875  9.8886828166312153 11.4052260073561555   F   F   F
 16.1845449014063441 19.8199434320233259  4.7196493401794779   F   F   F
  2.2136347901559494  2.5175005587295871  1.2818583479620820   F   F   F
  7.9366542050064774 12.4529484119680696  7.9640699451060808   F   F   F
  2.2136347901559494  7.4137600566625226  1.2818583479620820   F   F   F
  7.9421545960614495 17.3454891258218602  7.9670004167907766   F   F   F
 18.0919543868932990 17.3453351279142964 12.0913282289240929   F   F   F
 12.3684579491474924  7.4137600566625226  5.4037183192145006   F   F   F
 18.0937855987339908 12.4494810969649254 12.0912806074862260   F   F   F
 12.3684579491474924  2.5175005587295871  5.4037183192145006   F   F   F
  1.6881962070130982  0.9207382679108781 12.6129474627524694   F   F   F
  8.4666269519784461 10.8519988833029899  5.9273707955758868   F   F   F
  1.6881962070130982  9.0105223474812313 12.6129474627524694   F   F   F
  8.4652365011834689 18.9444005185691786  5.9257481491486832   F   F   F
 18.6224822178624940 18.9408903612400898  0.7590927084052728   F   F   F
 11.8430193660046434  9.0105223474812313  7.4437825387772794   F   F   F
 18.6214501109699881 10.8519988833029899  0.7582058716006961   F   F   F
 11.8430193660046434  0.9207382679108781  7.4437825387772794   F   F   F
  2.6191221466297452  1.5772552032846385 10.2029786362431807   F   F   F
  7.5357010123617982 11.5085158186767487  3.5174019690665985   F   F   F
  2.6191221466297452  8.3540054121074725 10.2029786362431807   F   F   F
  7.5406278508315596 18.2927041329833742  3.5054060632774666   F   F   F
 17.6907090700663332 18.2851315816173852  3.1685764672159431   F   F   F
 12.7739453056212895  8.3540054121074725  9.8537513652865663   F   F   F
 17.6905241713533421 11.5085158186767487  3.1681746981099845   F   F   F
 12.7739453056212895  1.5772552032846385  9.8537513652865663   F   F   F
  1.4955151604400212 19.0733832131623267 10.5776064746765535   F   F   F
  8.6605141216446260  9.1427877065086367  3.8893856967007774   F   F   F
  1.4943090373469170 10.7197335242755862 10.5749623638772636   F   F   F
  8.6605141216446260  0.7884729088834742  3.8893856967007774   F   F   F
 18.8153372806361716  0.7884729088834742  2.7961909704758057   F   F   F
 11.6491321963384618 10.7197335242755862  9.4817676376524833   F   F   F
 18.8153372806361716  9.1427877065086367  2.7961909704758057   F   F   F
 11.6467646814808248 19.0728579966261762  9.4790696511020762   F   F   F
  4.3968316384186590  2.7045309019182375  8.6446672192582152   F   F   F
  5.7546689134107210 12.6356669297554056  1.9595752693426107   F   F   F
  4.3968316384186590  7.2267297134738726  8.6446672192582152   F   F   F
  5.7592848249867528 17.1535502126034274  1.9639205136948592   F   F   F
 15.9165397476502974 17.1567902415147060  4.7252413654244263   F   F   F
 14.5516547974102028  7.2267297134738726 11.4120627822715335   F   F   F
 15.9148013597967246 12.6367588833422140  4.7256743449558263   F   F   F
 14.5516547974102028  2.7045309019182375 11.4120627822715335   F   F   F
 10.0773288224062227 16.9340442891380469  9.5373702418097572   F   F   F
  0.0850379718339152  7.0141658028945288  2.8615498313442469   F   F   F
 10.0706988980820729 12.8522476652388331  9.5379308715564424   F   F   F
  0.0850379718339152  2.9170948124975822  2.8615498313442469   F   F   F
 10.2398611308254601  2.9170948124975822  3.8240268358323357   F   F   F
 20.2253264047137549 12.8496455105907579 10.5176280748333095   F   F   F
 10.2398611308254601  7.0141658028945288  3.8240268358323357   F   F   F
 20.2295201716689768 16.9426747924105108 10.5253973021384954   F   F   F
  7.6800761695627822 16.5534571108616682 10.5105548436568501   F   F   F
  2.4846705705810739  6.6155995192168131  3.8215753922960478   F   F   F
  7.6743972909211102 13.2438141704343337 10.5083222711250031   F   F   F
  2.4846705705810739  3.3156610961752970  3.8215753922960478   F   F   F
 12.6394937295726173  3.3156610961752970  2.8640012748805352   F   F   F
 17.8284897112156209 13.2440898983687010  9.5500336927514144   F   F   F
 12.6394937295726173  6.6155995192168131  2.8640012748805352   F   F   F
 17.8364355221232103 16.5551109291288086  9.5473983400149134   F   F   F
  8.5970022091670533 14.8973398626527569  8.6468069815060904   F   F   F
  1.5419329197154532  4.9656303076960553  1.9688022888379906   F   F   F
 11.6967560787069971  4.9656303076960553  4.7167743783385925   F   F   F
 18.7617595680314402 14.8972886466611723 11.4049706240080386   F   F   F
  6.4467362126069983 17.1761027227191150 12.7737180494467886   F   F   F
  3.7059346158871325  7.2425982351504699  6.0879969914885113   F   F   F
  6.4470173798424595 12.6178503990969499 12.7728094940607733   F   F   F
  3.7059346158871325  2.6886623802416403  6.0879969914885113   F   F   F
 13.8607577748786781  2.6886623802416403  0.5975796756880712   F   F   F
 16.6021413253360492 12.6182795162017243  7.2840977463410930   F   F   F
 13.8607577748786781  7.2425982351504699  0.5975796756880712   F   F   F
 16.6030367646997945 17.1768085604502794  7.2839651974414021   F   F   F
  5.0362814835164258 16.8127868342514688 10.5665596949326197   F   F   F
  5.1270102565117828  6.8928686523636049  3.8857134349154596   F   F   F
  5.0313658222326909 12.9750752302108356 10.5670553099780893   F   F   F
  5.1270102565117828  3.0383919630285057  3.8857134349154596   F   F   F
 15.2818334155033284  3.0383919630285057  2.7998632322611234   F   F   F
 15.1846686301415978 12.9735798824262432  9.4885323523109193   F   F   F
 15.2818334155033284  6.8928686523636049  2.7998632322611234   F   F   F
 15.1923409811142722 16.8126883500807516  9.4903078689638978   F   F   F
  6.0101425110481133 14.8959506651414451  0.6721556332466168   F   F   F
  4.1584246617385503  4.9656303076960553  7.3574447498228954   F   F   F
 14.3132478207300924  4.9656303076960553 12.6992852517067583   F   F   F
 16.1618083842187410 14.8974276531275152  6.0159629298753154   F   F   F
  3.9841554781818687 16.5281824161231192  0.0942276874337748   F   F   F
  6.1734543920290044  6.6085914233823377  6.7692293982920377   F   F   F
  3.9834128860965912 13.2668793580119218  0.0879820816802687   F   F   F
  6.1734543920290044  3.3226691920097720  6.7692293982920377   F   F   F
 16.3282775510205482  3.3226691920097720 13.2875006032377101   F   F   F
 14.1381458223069032 13.2627556034494116  6.5965011222848622   F   F   F
 16.3282775510205482  6.6085914233823377 13.2875006032377101   F   F   F
 14.1383663070687096 16.5319629356528424  6.5948633237163712   F   F   F
  1.8854109738765377 14.8979854731625334  0.2709477311017248   F   F   F
  8.2628481081252829  4.9656303076960553  6.9524502333987286   F   F   F
 18.4176712671168268  4.9656303076960553 13.1042797681310184   F   F   F
 12.0419950641753619 14.8975671046597373  6.4159212024124930   F   F   F
  1.6513541357391863 17.2801219821667118 12.5029837128788337   F   F   F
  8.5131568979229311  7.3415004446393679  5.8058209428476975   F   F   F
  1.6486319682240320 12.5194173356646665 12.4955507566917863   F   F   F
  8.5131568979229311  2.5897601707527422  5.8058209428476975   F   F   F
 18.6679800569143310  2.5897601707527422  0.8797557243288845   F   F   F
 11.8022351376917012 12.5202536632261623  7.5616505541780183   F   F   F
 18.6679800569143310  7.3415004446393679  0.8797557243288845   F   F   F
 11.8040983508834199 17.2765187763024635  7.5577942390232487   F   F   F
  2.4689135256563204 16.6817753477512873 10.0065475288728543   F   F   F
  7.6891086568283837  6.7513042184734262  3.3094339217652693   F   F   F
  2.4647615624482615 13.1107012503462599  9.9979641140694682   F   F   F
  7.6891086568283837  3.1799563969186848  3.3094339217652693   F   F   F
 17.8439318158197828  3.1799563969186848  3.3761427454113133   F   F   F
 12.6195539019734166 13.1106949765873910 10.0601464464671402   F   F   F
 17.8439318158197828  6.7513042184734262  3.3761427454113133   F   F   F
 12.6268831331704749 16.6854601844986448 10.0558041121512378   F   F   F
  4.1184903005756235 14.8962302554838288  8.9704019271892559   F   F   F
  6.0281749005281000  4.9656303076960553  2.2907179157230457   F   F   F
 16.1829980595196439  4.9656303076960553  4.3948587514535369   F   F   F
 14.2747607211203835 14.8957501319474410 11.0869961491813172   F   F   F
  8.6114921007489755  1.4146856099378582  9.1990931219956522   F   F   F
  1.5433310582425686 11.3459462253299677  2.5135164548190696   F   F   F
  8.6114921007489755  8.5165750054542517  9.1990931219956522   F   F   F
  1.5426321218115777 18.4491428370363657  2.5178637523313552   F   F   F
 11.6975379926533360 18.4487651583602883  4.1689117205657480   F   F   F
 18.7663152597405194  8.5165750054542517 10.8576368795340965   F   F   F
 11.6981542172341122 11.3459462253299677  4.1720602123575130   F   F   F
 18.7663152597405194  1.4146856099378582 10.8576368795340965   F   F   F
  6.5543253377466240  0.6425666935286518 11.2753241723876716   F   F   F
  3.6004978212449203 10.5738273089207624  4.5897475052110890   F   F   F
  6.5543253377466240  9.2886939218634588 11.2753241723876716   F   F   F
  3.6017119331047818 19.2211574860523804  4.5908650928065970   F   F   F
 13.7557901392750015 19.2211308058621846  2.0949000505843247   F   F   F
 16.7091484967381696  9.2886939218634588  8.7814058291420753   F   F   F
 13.7553209802364638 10.5738273089207624  2.0958291619654932   F   F   F
 16.7091484967381696  0.6425666935286518  8.7814058291420753   F   F   F
  5.6448362218964876  1.0320241432667694  0.8173882092636284   F   F   F
  4.5099869370950563 10.9632847586588795  7.5029648764402106   F   F   F
  5.6448362218964876  8.8992364721253416  0.8173882092636284   F   F   F
  4.5102431893388220 18.8298795357733226  7.5045833343751260   F   F   F
 14.6666023121506814 18.8316164985914156 12.5531302763925829   F   F   F
 15.7996593808880306  8.8992364721253416  5.8681884579129546   F   F   F
 14.6648100960866010 10.9632847586588795 12.5537651250895372   F   F   F
 15.7996593808880306  1.0320241432667694  5.8681884579129546   F   F   F
  2.4881439176978279  1.0483023193839807  0.6417355337127613   F   F   F
  7.6666792412937159 10.9795629347759487  7.3273122008893434   F   F   F
  2.4881439176978279  8.8829582960081304  0.6417355337127613   F   F   F
  7.6663160266027734 18.8146340440606430  7.3246659572175563   F   F   F
 17.8212571642947317 18.8153243798787706 12.7311758125052741   F   F   F
 12.6429670766893718  8.8829582960081304  6.0438411334638209   F   F   F
 17.8215024002852616 10.9795629347759487 12.7294178006404035   F   F   F
 12.6429670766893718  1.0483023193839807  6.0438411334638209   F   F   F
  1.4669611892426841  0.7765305914257938 11.0116839679886329   F   F   F
  8.6878619697488606 10.7077912068179053  4.3261073008120503   F   F   F
  1.4669611892426841  9.1547300239663159 11.0116839679886329   F   F   F
  8.6878748793305824 19.0848111576120054  4.3246171845775105   F   F   F
 18.8423404253003000 19.0856540849138590  2.3602858655037302   F   F   F
 11.6217843482342271  9.1547300239663159  9.0450460335411140   F   F   F
 18.8426851287404027 10.7077912068179053  2.3594693663645319   F   F   F
 11.6217843482342271  0.7765305914257938  9.0450460335411140   F   F   F
  4.0843573639185831  1.3979692287630687  9.5406986308418436   F   F   F
  6.0704657950729608 11.3292298441551793  2.8551219636652609   F   F   F
  4.0843573639185831  8.5332913866290419  9.5406986308418436   F   F   F
  6.0722318763118430 18.4639711292241877  2.8554865672492036   F   F   F
 16.2256255407683447 18.4645928713854595  3.8301802311044719   F   F   F
 14.2391805229101269  8.5332913866290419 10.5160313706879034   F   F   F
 16.2252889540645029 11.3292298441551793  3.8304547035113221   F   F   F
 14.2391805229101269  1.3979692287630687 10.5160313706879034   F   F   F
  8.5804965067682986 16.4420097745483176  9.1599967014393098   F   F   F
  1.5763273773718030  6.5092533948319806  2.4761345411157811   F   F   F
  8.5772596326197945 13.3536965574013440  9.1601147767978492   F   F   F
  1.5763273773718030  3.4220072205601295  2.4761345411157811   F   F   F
 11.7311505363633461  3.4220072205601295  4.2094421260608010   F   F   F
 18.7325478330710844 13.3537271492579084 10.8985916987380751   F   F   F
 11.7311505363633461  6.5092533948319806  4.2094421260608010   F   F   F
 18.7343952173479273 16.4413961432047735 10.8997305919027081   F   F   F
  6.4387383979525472 17.3695672174423379 11.1616917501836941   F   F   F
  3.7180465794847750  7.4382500466046224  4.4764479790710539   F   F   F
  6.4369239889446144 12.4243034540119357 11.1615365836902214   F   F   F
  3.7180465794847750  2.4930105687874886  4.4764479790710539   F   F   F
 13.8728697384763198  2.4930105687874886  2.2091286881055288   F   F   F
 16.5920618906750263 12.4247108191118851  8.8960621691698076   F   F   F
 13.8728697384763198  7.4382500466046224  2.2091286881055288   F   F   F
 16.5951214591409482 17.3696317196763381  8.8959154467477912   F   F   F
  5.5437202457689168 16.4379791763337337  0.5357930979449199   F   F   F
  4.6170079927443011  6.5095434530137322  7.2176998349999728   F   F   F
  5.5419082064754877 13.3543480164335389  0.5338937488984551   F   F   F
  4.6170079927443011  3.4217171623783784  7.2176998349999728   F   F   F
 14.7718311517358440  3.4217171623783784 12.8390301665297759   F   F   F
 15.6966897537827919 13.3548837177464144  6.1522024438378740   F   F   F
 14.7718311517358440  6.5095434530137322 12.8390301665297759   F   F   F
 15.6971883842486246 16.4402939890982687  6.1522784400592361   F   F   F
  2.3803812586133768 16.4441642530015848  0.3161717005627311   F   F   F
  7.7766577971384301  6.5146392987053847  6.9908051240805120   F   F   F
  2.3799896102642912 13.3514624297482580  0.3100124377655183   F   F   F
  7.7766577971384301  3.4166213166867263  6.9908051240805120   F   F   F
 17.9314809561299739  3.4166213166867263 13.0659248774492358   F   F   F
 12.5346374661792233 13.3507916661625945  6.3753190338939802   F   F   F
 17.9314809561299739  6.5146392987053847 13.0659248774492358   F   F   F
 12.5346569050313388 16.4443900833347669  6.3718181457725649   F   F   F
  1.3925568364391148 17.4907270797300605 10.9098411457641333   F   F   F
  8.7665009375840501  7.5582981210348308  4.2126116944586931   F   F   F
  1.3888379360098078 12.3032492291419633 10.9031205439254677   F   F   F
  8.7665009375840501  2.3729624943572789  4.2126116944586931   F   F   F
 18.9213240965755958  2.3729624943572789  2.4729649727178891   F   F   F
 11.5447318039348126 12.3035877910914202  9.1539922738573853   F   F   F
 18.9213240965755958  7.5582981210348308  2.4729649727178891   F   F   F
 11.5481567476796148 17.4889105621847207  9.1508916896315142   F   F   F
  3.9592436922306606 16.4473334882161488  9.4077563663103199   F   F   F
  6.1940601493177123  6.5178291587723436  2.7207962266042216   F   F   F
  3.9576633604739211 13.3448467395399710  9.4058544783050131   F   F   F
  6.1940601493177123  3.4134314566197661  2.7207962266042216   F   F   F
 16.3488833083092580  3.4134314566197661  3.9647804405723610   F   F   F
 14.1134015516416991 13.3447844080257170 10.6515777016783844   F   F   F
 16.3488833083092580  6.5178291587723436  3.9647804405723610   F   F   F
 14.1182296932646576 16.4472555487952832 10.6520256628749461   F   F   F
  6.2146122858336330 14.8572293150688211  5.6652967660182663   F   F   F
  7.4069412 15.6573596 4.68546 T  T  T
  7.289082 14.438775600000001 4.3499946 T  T  T

