 O Si Cu  H                             
   1.00000000000000     
    20.3096463179830877    0.0000000000000000    0.0000000000000000
     0.0000000000000000   19.8625212307842212    0.0000000000000000
     0.0000000000000000    0.0000000000000000   13.3711533343531652
   O    Si   Cu   H 
   192    96     1     2
Selective dynamics
Direct
  0.5025887620190588  0.0727797837547186  0.7075253542784736   F   F   F
  0.9974078170954428  0.5727822700759333  0.2075251050237270   F   F   F
  0.5025887620190588  0.4272201852627049  0.7075253542784736   F   F   F
  0.9973565383643119  0.9270975651699759  0.2073542118623184   T   T   T
  0.4974152247652523  0.9272547495896714  0.2922107957301031   T   T   T
  0.0025909363056442  0.4272201852627049  0.7924746456071219   F   F   F
  0.4974089573906113  0.5727822700759333  0.2924751442310196   F   F   F
  0.0025909363056442  0.0727797837547186  0.7924746456071219   F   F   F
  0.3868826604352336  0.0693889755477741  0.7958400994969068   F   F   F
  0.1131176764001935  0.5693889445651976  0.2958398502421602   F   F   F
  0.3868826604352336  0.4306109934696494  0.7958400994969068   F   F   F
  0.1128318991963244  0.9308876954079820  0.2961616867311661   T   T   T
  0.6129007649248182  0.9309120395011360  0.2037364205977800   T   T   T
  0.8868839820244006  0.4306109934696494  0.7041599003886887   F   F   F
  0.6131175208587578  0.5693889445651976  0.2041603990125864   F   F   F
  0.8868839820244006  0.0693889755477741  0.7041599003886887   F   F   F
  0.4023994249847505  0.1395880194556014  0.6299568772694428   F   F   F
  0.0977972782918132  0.6396365739083167  0.1302185525259279   T   T   T
  0.4023994249847505  0.3604119495618221  0.6299568772694428   F   F   F
  0.0979908875260807  0.8603835499076519  0.1306041145642385   T   T   T
  0.5980087192053309  0.8604374097528634  0.3692261713888617   T   T   T
  0.9023987770664448  0.3604119495618221  0.8700446183734343   F   F   F
  0.5982996549653853  0.6395767750979799  0.3692015829808120   T   T   T
  0.9023987770664448  0.1395880194556014  0.8700446183734343   F   F   F
  0.4045033513324086  0.0051825243534793  0.6227510665520910   F   F   F
  0.0954969855030257  0.5051825940630508  0.1227515651759887   F   F   F
  0.4045033513324086  0.4948173439717962  0.6227510665520910   F   F   F
  0.0954874556037014  0.9947608453315866  0.1226691778628267   T   T   T
  0.5954048860628486  0.9948348692810844  0.3772574013483644   T   T   T
  0.9045012262835073  0.4948173439717962  0.8772466896975715   F   F   F
  0.5954953528309943  0.5051825940630508  0.3772486840787579   F   F   F
  0.9045012262835073  0.0051825243534793  0.8772466896975715   F   F   F
  0.3244128379609492  0.0395323428922509  0.9639931334033705   F   F   F
  0.1755870064976151  0.5395337215997955  0.4639936320272682   F   F   F
  0.3244128379609492  0.4604677268173205  0.9639931334033705   F   F   F
  0.1755493056551456  0.9606040088482856  0.4639090667626434   T   T   T
  0.6756448872447715  0.9605737974139907  0.0359844280319115   T   T   T
  0.8244112052889179  0.4604677268173205  0.5360068664822251   F   F   F
  0.6755853738255837  0.5395337215997955  0.0360066172274784   F   F   F
  0.8244112052889179  0.0395323428922509  0.5360068664822251   F   F   F
  0.3250220759960259  0.9536172883589007  0.8088157091315061   T   T   T
  0.1753560817475446  0.4538069409854160  0.3088267628635180   F   F   F
  0.3246442550878825  0.5461945074317072  0.8088232727250499   F   F   F
  0.1753560817475446  0.0461928769937856  0.3088267628635180   F   F   F
  0.6753539566986504  0.0461928769937856  0.1911734863912287   F   F   F
  0.8246426224158512  0.5461945074317072  0.6911729877673309   F   F   F
  0.6753539566986504  0.4538069409854160  0.1911734863912287   F   F   F
  0.8244621165855924  0.9538649423184448  0.6913926915665949   T   T   T
  0.2554254229137740  0.0666023202507517  0.8022045467418053   F   F   F
  0.2445749139216531  0.5665997719643769  0.3022080368802733   F   F   F
  0.2554254229137740  0.4333976487666718  0.8022045467418053   F   F   F
  0.2444378333191082  0.9333363637969637  0.3019467666492738   T   T   T
  0.7445087701890409  0.9333462216612138  0.1978909957203963   T   T   T
  0.7554242826186055  0.4333976487666718  0.6977917137505756   F   F   F
  0.7445722964958890  0.5665997719643769  0.1977922123744733   F   F   F
  0.7554242826186055  0.0666023202507517  0.6977917137505756   F   F   F
  0.2915289566001675  0.1271842567541057  0.1038205131066334   F   F   F
  0.2084007072528689  0.6271346583619637  0.6038266885191753   T   T   T
  0.2915289566001675  0.3728157122633107  0.1038205131066334   F   F   F
  0.2081259982130783  0.8729455351696411  0.6038071510715157   T   T   T
  0.7088741455760540  0.8729403832292536  0.8963015087034574   T   T   T
  0.7915302781893274  0.3728157122633107  0.3961797361481132   F   F   F
  0.7084769739866283  0.6271974354498240  0.8963222402215602   T   T   T
  0.7915302781893274  0.1271842567541057  0.3961797361481132   F   F   F
  0.2010414133300102  0.0428271411325980  0.0290772224562801   F   F   F
  0.2989584311285540  0.5428263549588834  0.5290770229838415   F   F   F
  0.2010414133300102  0.4571730796152025  0.0290772224562801   F   F   F
  0.2987762103747322  0.9572964755861405  0.5291454991175950   T   T   T
  0.7990154550670672  0.9575976702999518  0.9711659607135106   T   T   T
  0.7010412577885745  0.4571730796152025  0.4709227276470074   F   F   F
  0.7989602450945767  0.5428263549588834  0.9709259684163243   F   F   F
  0.7010412577885745  0.0428271411325980  0.4709227276470074   F   F   F
  0.2968894635383705  0.9978541882830996  0.1470277059009675   F   F   F
  0.2031103809201937  0.4978562331087062  0.6470272072770697   F   F   F
  0.2968894635383705  0.5021437049261337  0.1470277059009675   F   F   F
  0.2031103809201937  0.0021436352165622  0.6470272072770697   F   F   F
  0.7031092406250252  0.0021436352165622  0.8529705489725998   F   F   F
  0.7968873384894692  0.5021437049261337  0.3529725433537791   F   F   F
  0.7031092406250252  0.4978562331087062  0.8529705489725998   F   F   F
  0.7968873384894692  0.9978541882830996  0.3529725433537791   F   F   F
  0.1089945125258041  0.1267462458944166  0.0958675716257531   F   F   F
  0.3900849720929842  0.6266762007868829  0.5966950726689190   T   T   T
  0.1089945125258041  0.3732537231230069  0.0958675716257531   F   F   F
  0.3913448704550760  0.8739616736240793  0.5953774444157586   T   T   T
  0.8907017190024745  0.8732975648405978  0.9042259138642746   T   T   T
  0.6089963264918268  0.3732537231230069  0.4041326776289935   F   F   F
  0.8909620502011434  0.6267731993393804  0.9042565536983345   T   T   T
  0.6089963264918268  0.1267462458944166  0.4041326776289935   F   F   F
  0.0831230624880561  0.0463555451647792  0.9432918525879828   F   F   F
  0.4168772743473781  0.5463556148743507  0.4432953427264508   F   F   F
  0.0831230624880561  0.4536443231604892  0.9432918525879828   F   F   F
  0.4167557587238693  0.9540081981382945  0.4428499308759221   T   T   T
  0.9169612601600375  0.9536361228952259  0.0567007137493943   T   T   T
  0.5831219221928876  0.4536443231604892  0.5567044079043981   F   F   F
  0.9168746569216140  0.5463556148743507  0.0567046073768367   F   F   F
  0.5831219221928876  0.0463555451647792  0.5567044079043981   F   F   F
  0.1289594096811513  0.0794088515588598  0.7630605786104070   F   F   F
  0.3710404347774130  0.5794078136547611  0.2630588335983788   F   F   F
  0.1289594096811513  0.4205916209193248  0.7630605786104070   F   F   F
  0.3710547122691623  0.9205995735201983  0.2626986335799861   T   T   T
  0.8710236794513350  0.9206314339203745  0.2368286879264255   T   T   T
  0.6289572846322500  0.4205916209193248  0.7369409170324701   F   F   F
  0.8710392944822516  0.5794078136547611  0.2369414156563678   F   F   F
  0.6289572846322500  0.0794088515588598  0.7369409170324701   F   F   F
  0.0737146837039335  0.9602861037988055  0.7910343911602804   T   T   T
  0.4264234770219275  0.4603035986101247  0.2908791712086156   F   F   F
  0.0735763674366368  0.5396948290424461  0.7908816640992882   F   F   F
  0.4264234770219275  0.0396965214455207  0.2908791712086156   F   F   F
  0.9264218443498962  0.0396965214455207  0.2091210780461239   F   F   F
  0.5735747347645983  0.5396948290424461  0.7091213273008705   F   F   F
  0.9264218443498962  0.4603035986101247  0.2091210780461239   F   F   F
  0.5720203152719858  0.9600692013309009  0.7090415667297648   T   T   T
  0.2164897374951735  0.1361624724563342  0.6465164061644657   F   F   F
  0.2834423429598504  0.6359532495089002  0.1461766832050978   T   T   T
  0.2164897374951735  0.3638374965610893  0.6465164061644657   F   F   F
  0.2836363935505599  0.8639478483490122  0.1460542434385613   T   T   T
  0.7840108923981320  0.8636781260349259  0.3533192950467627   T   T   T
  0.7164920438380662  0.3638374965610893  0.8534865852357001   F   F   F
  0.7839484622634464  0.6362828820772750  0.3533751113051788   T   T   T
  0.7164920438380662  0.1361624724563342  0.8534865852357001   F   F   F
  0.4968126824257900  0.8498645725954898  0.7124187110831097   T   T   T
  0.0041870743915737  0.3531359346833085  0.2140092128513800   F   F   F
  0.4967036144207435  0.6490152216032902  0.7125504427075797   T   T   T
  0.0041870743915737  0.1468645377948761  0.2140092128513800   F   F   F
  0.5041889868329790  0.1468645377948761  0.2859910364033666   F   F   F
  0.9959711930160776  0.6470574885386480  0.7866029801160686   T   T   T
  0.5041889868329790  0.3531359346833085  0.2859910364033666   F   F   F
  0.9960106218355307  0.8530648785490036  0.7871421722922370   T   T   T
  0.3780889894402085  0.8326234625996296  0.7850791103361743   T   T   T
  0.1223394027201721  0.3330694992409491  0.2858078061360345   F   F   F
  0.3784514573705627  0.6674026536260275  0.7860866755704995   T   T   T
  0.1223394027201721  0.1669304697764744  0.2858078061360345   F   F   F
  0.6223397395555992  0.1669304697764744  0.2141924431187121   F   F   F
  0.8779987766514531  0.6667120885882348  0.7141460222942343   T   T   T
  0.6223397395555992  0.3330694992409491  0.2141924431187121   F   F   F
  0.8783277579748640  0.8334814531407595  0.7139549996522272   T   T   T
  0.4200475225526418  0.7500170230863479  0.6405447014473792   T   T   T
  0.0759210660716789  0.2499999845087117  0.1472423470712698   F   F   F
  0.5759233724145716  0.2499999845087117  0.3527571543048325   F   F   F
  0.9237812353900418  0.7500393808570026  0.8529667342020152   T   T   T
  0.3178702609413643  0.8640368177276698  0.9547720550795898   T   T   T
  0.1824719122124066  0.3646364887844626  0.4553085173556966   F   F   F
  0.3177267057082943  0.6355229268371004  0.9549712445550522   T   T   T
  0.1824719122124066  0.1353634802329609  0.4553085173556966   F   F   F
  0.6824737261784293  0.1353634802329609  0.0446917318990501   F   F   F
  0.8175879815912528  0.6352996533436291  0.5447657034805407   T   T   T
  0.6824737261784293  0.3646364887844626  0.0446917318990501   F   F   F
  0.8177873873979405  0.8648301212077107  0.5446967687163690   T   T   T
  0.2480919668550073  0.8465587589122946  0.7897019189399286   T   T   T
  0.2524421114837594  0.3470289556854951  0.2906039518682988   F   F   F
  0.2483512903067542  0.6536573469963103  0.7896291097874512   T   T   T
  0.2524421114837594  0.1529710133319284  0.2906039518682988   F   F   F
  0.7524404788117280  0.1529710133319284  0.2093955495078035   F   F   F
  0.7479283581728982  0.6533829617300357  0.7098637872276242   T   T   T
  0.7524404788117280  0.3470289556854951  0.2093955495078035   F   F   F
  0.7482361451608465  0.8464432916374172  0.7097867957641251   T   T   T
  0.2957184367288418  0.7498839494857368  0.0501244134549494   T   T   T
  0.2047514730139781  0.2499999845087117  0.5502479715865078   F   F   F
  0.7047488555882140  0.2499999845087117  0.9497535240563693   F   F   F
  0.7955941048525359  0.7500379556073730  0.4501748502758949   T   T   T
  0.1962650007315490  0.8323696700962691  0.0062039138942693   T   T   T
  0.3039663962308268  0.3327165732493995  0.5062562540965345   F   F   F
  0.1961991710874811  0.6675634826915887  0.0060397471163671   T   T   T
  0.3039663962308268  0.1672833957680240  0.5062562540965345   F   F   F
  0.8039677178199867  0.1672833957680240  0.9937437457890610   F   F   F
  0.6962334354234636  0.6671173894380599  0.4932811015792775   T   T   T
  0.8039677178199867  0.3327165732493995  0.9937437457890610   F   F   F
  0.6963735133059110  0.8334030142255092  0.4933062715130331   T   T   T
  0.0931638306721158  0.7500475566677659  0.0202660546118309   T   T   T
  0.4068436185756568  0.2499999845087117  0.5199588865784506   F   F   F
  0.9068449401648166  0.2499999845087117  0.9800426090644265   F   F   F
  0.5944323459218114  0.7501458249202011  0.4810108836085641   T   T   T
  0.0812110632939172  0.8699389640049733  0.9350135827421010   T   T   T
  0.4191683039040441  0.3696157156837501  0.4342048778308225   F   F   F
  0.0810458397284474  0.6302913192168469  0.9346586574057000   T   T   T
  0.4191683039040441  0.1303842533336734  0.4342048778308225   F   F   F
  0.9191691331163412  0.1303842533336734  0.0657950722724649   F   F   F
  0.5818560481776192  0.6294655118881516  0.5651277997287204   T   T   T
  0.9191691331163412  0.3696157156837501  0.0657950722724649   F   F   F
  0.5814780918244236  0.8703674771361137  0.5649654088773386   T   T   T
  0.1215554407434635  0.8399102624413709  0.7483869702372806   T   T   T
  0.3785939882759877  0.3399014617306690  0.2475052014770824   F   F   F
  0.1216912245150519  0.6599647533461943  0.7481804730691810   T   T   T
  0.3785939882759877  0.1600985072867545  0.2475052014770824   F   F   F
  0.8785923556039563  0.1600985072867545  0.2524942998990269   F   F   F
  0.6216442717133732  0.6600276923483055  0.7524863378387133   T   T   T
  0.8785923556039563  0.3399014617306690  0.2524942998990269   F   F   F
  0.6219878685674255  0.8404444601888663  0.7522920858708662   T   T   T
  0.2027304073489127  0.7500462647246827  0.6707353484022249   T   T   T
  0.2968136375010317  0.2499999845087117  0.1713180563201462   F   F   F
  0.7968134819595960  0.2499999845087117  0.3286821929346004   F   F   F
  0.7028826035665056  0.7500780741838573  0.8293983350446859   T   T   T
  0.4240098456256689  0.0712240900116683  0.6879802938438928   F   F   F
  0.0759899988328954  0.5712215417252935  0.1879807924677834   F   F   F
  0.4240098456256689  0.4287758790057552  0.6879802938438928   F   F   F
  0.0759385892157153  0.9288259347677071  0.1881677602247185   T   T   T
  0.5759783016400954  0.9287820568054530  0.3117512102673987   T   T   T
  0.9240091977073703  0.4287758790057552  0.8120167145271324   F   F   F
  0.5759923051757880  0.5712215417252935  0.3120194567869561   F   F   F
  0.9240091977073703  0.0712240900116683  0.8120167145271324   F   F   F
  0.3227200462962543  0.0323507269059107  0.8432556054107536   F   F   F
  0.1772802905391799  0.5323493365792871  0.3432575997919329   F   F   F
  0.3227200462962543  0.4676490910732838  0.8432556054107536   F   F   F
  0.1772565311968920  0.9676672580865062  0.3431421166562538   T   T   T
  0.6772777194016130  0.9676969714671158  0.1567490204339150   T   T   T
  0.8227174288704902  0.4676490910732838  0.6567428987175532   F   F   F
  0.6772791502440114  0.5323493365792871  0.1567426494628066   F   F   F
  0.8227174288704902  0.0323507269059107  0.6567428987175532   F   F   F
  0.2779388627266144  0.0519581571749583  0.0611307027569552   F   F   F
  0.2220614741088127  0.5519591331138969  0.5611303537087835   F   F   F
  0.2779388627266144  0.4480418118424652  0.0611307027569552   F   F   F
  0.2218366547396987  0.9480890107272371  0.5610660693548415   T   T   T
  0.7221983026157699  0.9482022751130077  0.9390105510777847   T   T   T
  0.7779406766926442  0.4480418118424652  0.4388693969220654   F   F   F
  0.7220608261905141  0.5519591331138969  0.9388718898127308   F   F   F
  0.7779406766926442  0.0519581571749583  0.4388693969220654   F   F   F
  0.1225102574926140  0.0527777912894223  0.0479940648314354   F   F   F
  0.3774895869659503  0.5527797741498759  0.5479938653589969   F   F   F
  0.1225102574926140  0.4472221777280012  0.0479940648314354   F   F   F
  0.3772756294066596  0.9479730243526433  0.5470937641881304   T   T   T
  0.8774615859042775  0.9473074843893943  0.9521480183157761   T   T   T
  0.6225120714586438  0.4472221777280012  0.4520058852718520   F   F   F
  0.8774894314245145  0.5527797741498759  0.9520046387693171   F   F   F
  0.6225120714586438  0.0527777912894223  0.4520058852718520   F   F   F
  0.0722297167086126  0.0390952886079958  0.8235415244030406   F   F   F
  0.4277701277499517  0.5390957107400993  0.3235405272696497   F   F   F
  0.0722297167086126  0.4609047307555016  0.8235415244030406   F   F   F
  0.4278018949801231  0.9608063508985109  0.3229977582239567   T   T   T
  0.9277430841171254  0.9608850378285364  0.1764587502796094   T   T   T
  0.5722305459209096  0.4609047307555016  0.6764599712398365   F   F   F
  0.9277709569622488  0.5390957107400993  0.1764597219850899   F   F   F
  0.5722305459209096  0.0390952886079958  0.6764599712398365   F   F   F
  0.2011044375688371  0.0703823036238376  0.7135285761392041   F   F   F
  0.2988958992665900  0.5703807622589849  0.2135283268844574   F   F   F
  0.2011044375688371  0.4296176653935859  0.7135285761392041   F   F   F
  0.2988951632840147  0.9295152869749587  0.2134787812659835   T   T   T
  0.7989185416855901  0.9295748874923938  0.2864826596519963   T   T   T
  0.7011052667811342  0.4296176653935859  0.7864691801104584   F   F   F
  0.7988962361020242  0.5703807622589849  0.2864719223702821   F   F   F
  0.7011052667811342  0.0703823036238376  0.7864691801104584   F   F   F
  0.4223845144615924  0.8285928275793590  0.6844025513496294   T   T   T
  0.0776148424901066  0.3277151940767524  0.1851852221033425   F   F   F
  0.4226008130201042  0.6716350548166088  0.6851910400993969   T   T   T
  0.0776148424901066  0.1722847749406711  0.1851852221033425   F   F   F
  0.5776171488329993  0.1722847749406711  0.3148150271514041   F   F   F
  0.9223852621841454  0.6723165618400753  0.8150568265225461   T   T   T
  0.5776171488329993  0.3277151940767524  0.3148150271514041   F   F   F
  0.9224011596753743  0.8277723637582775  0.8151691033730979   T   T   T
  0.3170595611356900  0.8742652985018635  0.8345155133809240   T   T   T
  0.1830681805969121  0.3744866985200090  0.3347841347761005   F   F   F
  0.3171456468818112  0.6256116897641472  0.8346445952391027   T   T   T
  0.1830681805969121  0.1255132704974145  0.3347841347761005   F   F   F
  0.6830695021860791  0.1255132704974145  0.1652161144786461   F   F   F
  0.8170423269808709  0.6255294061546671  0.6652285728556929   T   T   T
  0.6830695021860791  0.3744866985200090  0.1652161144786461   F   F   F
  0.8172623949520779  0.8745245934557824  0.6651897554755392   T   T   T
  0.2729301068414845  0.8275069615782933  0.0397550903680136   T   T   T
  0.2273308913268437  0.3277297944387385  0.5397963675621256   F   F   F
  0.2728500843787125  0.6722742633711111  0.0397661520829325   T   T   T
  0.2273308913268437  0.1722701745786850  0.5397963675621256   F   F   F
  0.7273292586548052  0.1722701745786850  0.9602013886875440   F   F   F
  0.7728146543345360  0.6722875902823119  0.4601260821980134   T   T   T
  0.7273292586548052  0.3277297944387385  0.9602013886875440   F   F   F
  0.7729763946083331  0.8277838968827442  0.4601688280353166   T   T   T
  0.1173172481716093  0.8279355708708005  0.0234688708063384   T   T   T
  0.3829047477362622  0.3279865594254545  0.5228270011711871   F   F   F
  0.1172565347551478  0.6721242671853638  0.0231939649788256   T   T   T
  0.3829047477362622  0.1720134095919690  0.5228270011711871   F   F   F
  0.8829055769485592  0.1720134095919690  0.9771707550784754   F   F   F
  0.6171510415977449  0.6720727147477451  0.4763194109881929   T   T   T
  0.8829055769485592  0.3279865594254545  0.9771707550784754   F   F   F
  0.6174040663312049  0.8280584948266043  0.4763472236996960   T   T   T
  0.0684919573518421  0.8806222640493354  0.8159023990243467   T   T   T
  0.4316421794227736  0.3805307449230426  0.3150521046809729   F   F   F
  0.0684179030454764  0.6194120826201582  0.8155526081833959   T   T   T
  0.4316421794227736  0.1194692240943809  0.3150521046809729   F   F   F
  0.9316410391276122  0.1194692240943809  0.1849473966951294   F   F   F
  0.5691564097142822  0.6195093423025665  0.6839653613248824   T   T   T
  0.9316410391276122  0.3805307449230426  0.1849473966951294   F   F   F
  0.5688945692954291  0.8802521537967393  0.6840008130600098   T   T   T
  0.1947968775125867  0.8281098364569152  0.7032561790517610   T   T   T
  0.3049811849512878  0.3281471634073441  0.2034828209627761   F   F   F
  0.1949627705579511  0.6719574732009734  0.7032294134715080   T   T   T
  0.3049811849512878  0.1718528056100794  0.2034828209627761   F   F   F
  0.8049820141635848  0.1718528056100794  0.2965174282919705   F   F   F
  0.6952019937800922  0.6719794167384694  0.7967893721003697   T   T   T
  0.8049820141635848  0.3281471634073441  0.2965174282919705   F   F   F
  0.6954675555192292  0.8281817427418852  0.7967644510509033   T   T   T
  0.4225541619930064  0.7442488967688748  0.4809550111607868   T   T   T
  0.3614069621201729  0.7573441284772667  0.4000343289638177   T   T   T
  0.4138860929613423  0.7437468532630914  0.3711775625211151   T   T   T
 
  0.00000000E+00  0.00000000E+00  0.00000000E+00
  0.00000000E+00  0.00000000E+00  0.00000000E+00
  0.00000000E+00  0.00000000E+00  0.00000000E+00
  0.00000000E+00  0.00000000E+00  0.00000000E+00
  0.00000000E+00  0.00000000E+00  0.00000000E+00
  0.00000000E+00  0.00000000E+00  0.00000000E+00
  0.00000000E+00  0.00000000E+00  0.00000000E+00
  0.00000000E+00  0.00000000E+00  0.00000000E+00
  0.00000000E+00  0.00000000E+00  0.00000000E+00
  0.00000000E+00  0.00000000E+00  0.00000000E+00
  0.00000000E+00  0.00000000E+00  0.00000000E+00
  0.00000000E+00  0.00000000E+00  0.00000000E+00
  0.00000000E+00  0.00000000E+00  0.00000000E+00
  0.00000000E+00  0.00000000E+00  0.00000000E+00
  0.00000000E+00  0.00000000E+00  0.00000000E+00
  0.00000000E+00  0.00000000E+00  0.00000000E+00
  0.00000000E+00  0.00000000E+00  0.00000000E+00
  0.00000000E+00  0.00000000E+00  0.00000000E+00
  0.00000000E+00  0.00000000E+00  0.00000000E+00
  0.00000000E+00  0.00000000E+00  0.00000000E+00
  0.00000000E+00  0.00000000E+00  0.00000000E+00
  0.00000000E+00  0.00000000E+00  0.00000000E+00
  0.00000000E+00  0.00000000E+00  0.00000000E+00
  0.00000000E+00  0.00000000E+00  0.00000000E+00
  0.00000000E+00  0.00000000E+00  0.00000000E+00
  0.00000000E+00  0.00000000E+00  0.00000000E+00
  0.00000000E+00  0.00000000E+00  0.00000000E+00
  0.00000000E+00  0.00000000E+00  0.00000000E+00
  0.00000000E+00  0.00000000E+00  0.00000000E+00
  0.00000000E+00  0.00000000E+00  0.00000000E+00
  0.00000000E+00  0.00000000E+00  0.00000000E+00
  0.00000000E+00  0.00000000E+00  0.00000000E+00
  0.00000000E+00  0.00000000E+00  0.00000000E+00
  0.00000000E+00  0.00000000E+00  0.00000000E+00
  0.00000000E+00  0.00000000E+00  0.00000000E+00
  0.00000000E+00  0.00000000E+00  0.00000000E+00
  0.00000000E+00  0.00000000E+00  0.00000000E+00
  0.00000000E+00  0.00000000E+00  0.00000000E+00
  0.00000000E+00  0.00000000E+00  0.00000000E+00
  0.00000000E+00  0.00000000E+00  0.00000000E+00
  0.00000000E+00  0.00000000E+00  0.00000000E+00
  0.00000000E+00  0.00000000E+00  0.00000000E+00
  0.00000000E+00  0.00000000E+00  0.00000000E+00
  0.00000000E+00  0.00000000E+00  0.00000000E+00
  0.00000000E+00  0.00000000E+00  0.00000000E+00
  0.00000000E+00  0.00000000E+00  0.00000000E+00
  0.00000000E+00  0.00000000E+00  0.00000000E+00
  0.00000000E+00  0.00000000E+00  0.00000000E+00
  0.00000000E+00  0.00000000E+00  0.00000000E+00
  0.00000000E+00  0.00000000E+00  0.00000000E+00
  0.00000000E+00  0.00000000E+00  0.00000000E+00
  0.00000000E+00  0.00000000E+00  0.00000000E+00
  0.00000000E+00  0.00000000E+00  0.00000000E+00
  0.00000000E+00  0.00000000E+00  0.00000000E+00
  0.00000000E+00  0.00000000E+00  0.00000000E+00
  0.00000000E+00  0.00000000E+00  0.00000000E+00
  0.00000000E+00  0.00000000E+00  0.00000000E+00
  0.00000000E+00  0.00000000E+00  0.00000000E+00
  0.00000000E+00  0.00000000E+00  0.00000000E+00
  0.00000000E+00  0.00000000E+00  0.00000000E+00
  0.00000000E+00  0.00000000E+00  0.00000000E+00
  0.00000000E+00  0.00000000E+00  0.00000000E+00
  0.00000000E+00  0.00000000E+00  0.00000000E+00
  0.00000000E+00  0.00000000E+00  0.00000000E+00
  0.00000000E+00  0.00000000E+00  0.00000000E+00
  0.00000000E+00  0.00000000E+00  0.00000000E+00
  0.00000000E+00  0.00000000E+00  0.00000000E+00
  0.00000000E+00  0.00000000E+00  0.00000000E+00
  0.00000000E+00  0.00000000E+00  0.00000000E+00
  0.00000000E+00  0.00000000E+00  0.00000000E+00
  0.00000000E+00  0.00000000E+00  0.00000000E+00
  0.00000000E+00  0.00000000E+00  0.00000000E+00
  0.00000000E+00  0.00000000E+00  0.00000000E+00
  0.00000000E+00  0.00000000E+00  0.00000000E+00
  0.00000000E+00  0.00000000E+00  0.00000000E+00
  0.00000000E+00  0.00000000E+00  0.00000000E+00
  0.00000000E+00  0.00000000E+00  0.00000000E+00
  0.00000000E+00  0.00000000E+00  0.00000000E+00
  0.00000000E+00  0.00000000E+00  0.00000000E+00
  0.00000000E+00  0.00000000E+00  0.00000000E+00
  0.00000000E+00  0.00000000E+00  0.00000000E+00
  0.00000000E+00  0.00000000E+00  0.00000000E+00
  0.00000000E+00  0.00000000E+00  0.00000000E+00
  0.00000000E+00  0.00000000E+00  0.00000000E+00
  0.00000000E+00  0.00000000E+00  0.00000000E+00
  0.00000000E+00  0.00000000E+00  0.00000000E+00
  0.00000000E+00  0.00000000E+00  0.00000000E+00
  0.00000000E+00  0.00000000E+00  0.00000000E+00
  0.00000000E+00  0.00000000E+00  0.00000000E+00
  0.00000000E+00  0.00000000E+00  0.00000000E+00
  0.00000000E+00  0.00000000E+00  0.00000000E+00
  0.00000000E+00  0.00000000E+00  0.00000000E+00
  0.00000000E+00  0.00000000E+00  0.00000000E+00
  0.00000000E+00  0.00000000E+00  0.00000000E+00
  0.00000000E+00  0.00000000E+00  0.00000000E+00
  0.00000000E+00  0.00000000E+00  0.00000000E+00
  0.00000000E+00  0.00000000E+00  0.00000000E+00
  0.00000000E+00  0.00000000E+00  0.00000000E+00
  0.00000000E+00  0.00000000E+00  0.00000000E+00
  0.00000000E+00  0.00000000E+00  0.00000000E+00
  0.00000000E+00  0.00000000E+00  0.00000000E+00
  0.00000000E+00  0.00000000E+00  0.00000000E+00
  0.00000000E+00  0.00000000E+00  0.00000000E+00
  0.00000000E+00  0.00000000E+00  0.00000000E+00
  0.00000000E+00  0.00000000E+00  0.00000000E+00
  0.00000000E+00  0.00000000E+00  0.00000000E+00
  0.00000000E+00  0.00000000E+00  0.00000000E+00
  0.00000000E+00  0.00000000E+00  0.00000000E+00
  0.00000000E+00  0.00000000E+00  0.00000000E+00
  0.00000000E+00  0.00000000E+00  0.00000000E+00
  0.00000000E+00  0.00000000E+00  0.00000000E+00
  0.00000000E+00  0.00000000E+00  0.00000000E+00
  0.00000000E+00  0.00000000E+00  0.00000000E+00
  0.00000000E+00  0.00000000E+00  0.00000000E+00
  0.00000000E+00  0.00000000E+00  0.00000000E+00
  0.00000000E+00  0.00000000E+00  0.00000000E+00
  0.00000000E+00  0.00000000E+00  0.00000000E+00
  0.00000000E+00  0.00000000E+00  0.00000000E+00
  0.00000000E+00  0.00000000E+00  0.00000000E+00
  0.00000000E+00  0.00000000E+00  0.00000000E+00
  0.00000000E+00  0.00000000E+00  0.00000000E+00
  0.00000000E+00  0.00000000E+00  0.00000000E+00
  0.00000000E+00  0.00000000E+00  0.00000000E+00
  0.00000000E+00  0.00000000E+00  0.00000000E+00
  0.00000000E+00  0.00000000E+00  0.00000000E+00
  0.00000000E+00  0.00000000E+00  0.00000000E+00
  0.00000000E+00  0.00000000E+00  0.00000000E+00
  0.00000000E+00  0.00000000E+00  0.00000000E+00
  0.00000000E+00  0.00000000E+00  0.00000000E+00
  0.00000000E+00  0.00000000E+00  0.00000000E+00
  0.00000000E+00  0.00000000E+00  0.00000000E+00
  0.00000000E+00  0.00000000E+00  0.00000000E+00
  0.00000000E+00  0.00000000E+00  0.00000000E+00
  0.00000000E+00  0.00000000E+00  0.00000000E+00
  0.00000000E+00  0.00000000E+00  0.00000000E+00
  0.00000000E+00  0.00000000E+00  0.00000000E+00
  0.00000000E+00  0.00000000E+00  0.00000000E+00
  0.00000000E+00  0.00000000E+00  0.00000000E+00
  0.00000000E+00  0.00000000E+00  0.00000000E+00
  0.00000000E+00  0.00000000E+00  0.00000000E+00
  0.00000000E+00  0.00000000E+00  0.00000000E+00
  0.00000000E+00  0.00000000E+00  0.00000000E+00
  0.00000000E+00  0.00000000E+00  0.00000000E+00
  0.00000000E+00  0.00000000E+00  0.00000000E+00
  0.00000000E+00  0.00000000E+00  0.00000000E+00
  0.00000000E+00  0.00000000E+00  0.00000000E+00
  0.00000000E+00  0.00000000E+00  0.00000000E+00
  0.00000000E+00  0.00000000E+00  0.00000000E+00
  0.00000000E+00  0.00000000E+00  0.00000000E+00
  0.00000000E+00  0.00000000E+00  0.00000000E+00
  0.00000000E+00  0.00000000E+00  0.00000000E+00
  0.00000000E+00  0.00000000E+00  0.00000000E+00
  0.00000000E+00  0.00000000E+00  0.00000000E+00
  0.00000000E+00  0.00000000E+00  0.00000000E+00
  0.00000000E+00  0.00000000E+00  0.00000000E+00
  0.00000000E+00  0.00000000E+00  0.00000000E+00
  0.00000000E+00  0.00000000E+00  0.00000000E+00
  0.00000000E+00  0.00000000E+00  0.00000000E+00
  0.00000000E+00  0.00000000E+00  0.00000000E+00
  0.00000000E+00  0.00000000E+00  0.00000000E+00
  0.00000000E+00  0.00000000E+00  0.00000000E+00
  0.00000000E+00  0.00000000E+00  0.00000000E+00
  0.00000000E+00  0.00000000E+00  0.00000000E+00
  0.00000000E+00  0.00000000E+00  0.00000000E+00
  0.00000000E+00  0.00000000E+00  0.00000000E+00
  0.00000000E+00  0.00000000E+00  0.00000000E+00
  0.00000000E+00  0.00000000E+00  0.00000000E+00
  0.00000000E+00  0.00000000E+00  0.00000000E+00
  0.00000000E+00  0.00000000E+00  0.00000000E+00
  0.00000000E+00  0.00000000E+00  0.00000000E+00
  0.00000000E+00  0.00000000E+00  0.00000000E+00