 O Si Cu  H                             
   1.00000000000000     
    20.3096463179830877    0.0000000000000000    0.0000000000000000
     0.0000000000000000   19.8625212307842212    0.0000000000000000
     0.0000000000000000    0.0000000000000000   13.3711533343531652
   O    Si   Cu   H 
   192    96     1     2
Selective dynamics
Direct
  0.5025887620190588  0.0727797837547186  0.7075253542784736   F   F   F
  0.9974078170954428  0.5727822700759333  0.2075251050237270   F   F   F
  0.5025887620190588  0.4272201852627049  0.7075253542784736   F   F   F
  0.9973568888195684  0.9272112279866657  0.2076584164629936   T   T   T
  0.4973713644814652  0.9272563998408622  0.2922724777256281   T   T   T
  0.0025909363056442  0.4272201852627049  0.7924746456071219   F   F   F
  0.4974089573906113  0.5727822700759333  0.2924751442310196   F   F   F
  0.0025909363056442  0.0727797837547186  0.7924746456071219   F   F   F
  0.3868826604352336  0.0693889755477741  0.7958400994969068   F   F   F
  0.1131176764001935  0.5693889445651976  0.2958398502421602   F   F   F
  0.3868826604352336  0.4306109934696494  0.7958400994969068   F   F   F
  0.1129741372641739  0.9308550672471312  0.2962273789209485   T   T   T
  0.6129620533717300  0.9308201826384214  0.2038018436420599   T   T   T
  0.8868839820244006  0.4306109934696494  0.7041599003886887   F   F   F
  0.6131175208587578  0.5693889445651976  0.2041603990125864   F   F   F
  0.8868839820244006  0.0693889755477741  0.7041599003886887   F   F   F
  0.4023994249847505  0.1395880194556014  0.6299568772694428   F   F   F
  0.0976193640308752  0.6396559615627805  0.1301804273892384   T   T   T
  0.4023994249847505  0.3604119495618221  0.6299568772694428   F   F   F
  0.0976975253105155  0.8603060815925232  0.1307969248301089   T   T   T
  0.5977321181751966  0.8603185666604335  0.3692745292347260   T   T   T
  0.9023987770664448  0.3604119495618221  0.8700446183734343   F   F   F
  0.5977180469763361  0.6396817300749945  0.3697207034658954   T   T   T
  0.9023987770664448  0.1395880194556014  0.8700446183734343   F   F   F
  0.4045033513324086  0.0051825243534793  0.6227510665520910   F   F   F
  0.0954969855030257  0.5051825940630508  0.1227515651759887   F   F   F
  0.4045033513324086  0.4948173439717962  0.6227510665520910   F   F   F
  0.0955006994460052  0.9947373862804554  0.1227007545517103   T   T   T
  0.5955186743827756  0.9947163689973112  0.3773213652166001   T   T   T
  0.9045012262835073  0.4948173439717962  0.8772466896975715   F   F   F
  0.5954953528309943  0.5051825940630508  0.3772486840787579   F   F   F
  0.9045012262835073  0.0051825243534793  0.8772466896975715   F   F   F
  0.3244128379609492  0.0395323428922509  0.9639931334033705   F   F   F
  0.1755870064976151  0.5395337215997955  0.4639936320272682   F   F   F
  0.3244128379609492  0.4604677268173205  0.9639931334033705   F   F   F
  0.1757204675084590  0.9604797861861978  0.4640800111118650   T   T   T
  0.6756737033657638  0.9604868160480288  0.0359379915720883   T   T   T
  0.8244112052889179  0.4604677268173205  0.5360068664822251   F   F   F
  0.6755853738255837  0.5395337215997955  0.0360066172274784   F   F   F
  0.8244112052889179  0.0395323428922509  0.5360068664822251   F   F   F
  0.3243911843206412  0.9538331437223416  0.8086568216373785   T   T   T
  0.1753560817475446  0.4538069409854160  0.3088267628635180   F   F   F
  0.3246442550878825  0.5461945074317072  0.8088232727250499   F   F   F
  0.1753560817475446  0.0461928769937856  0.3088267628635180   F   F   F
  0.6753539566986504  0.0461928769937856  0.1911734863912287   F   F   F
  0.8246426224158512  0.5461945074317072  0.6911729877673309   F   F   F
  0.6753539566986504  0.4538069409854160  0.1911734863912287   F   F   F
  0.8244229498963853  0.9538360732937935  0.6913093119135906   T   T   T
  0.2554254229137740  0.0666023202507517  0.8022045467418053   F   F   F
  0.2445749139216531  0.5665997719643769  0.3022080368802733   F   F   F
  0.2554254229137740  0.4333976487666718  0.8022045467418053   F   F   F
  0.2445520578238763  0.9333855618121158  0.3021809955818026   T   T   T
  0.7445011750748723  0.9333485154358601  0.1978747942999030   T   T   T
  0.7554242826186055  0.4333976487666718  0.6977917137505756   F   F   F
  0.7445722964958890  0.5665997719643769  0.1977922123744733   F   F   F
  0.7554242826186055  0.0666023202507517  0.6977917137505756   F   F   F
  0.2915289566001675  0.1271842567541057  0.1038205131066334   F   F   F
  0.2083837751372009  0.6271752582921608  0.6037281839185344   T   T   T
  0.2915289566001675  0.3728157122633107  0.1038205131066334   F   F   F
  0.2083029043419835  0.8728198920105508  0.6039722946680202   T   T   T
  0.7086387368398984  0.8728608444139917  0.8961484191184808   T   T   T
  0.7915302781893274  0.3728157122633107  0.3961797361481132   F   F   F
  0.7083024933528576  0.6271180207416996  0.8961647238284540   T   T   T
  0.7915302781893274  0.1271842567541057  0.3961797361481132   F   F   F
  0.2010414133300102  0.0428271411325980  0.0290772224562801   F   F   F
  0.2989584311285540  0.5428263549588834  0.5290770229838415   F   F   F
  0.2010414133300102  0.4571730796152025  0.0290772224562801   F   F   F
  0.2990056775819053  0.9570173732114025  0.5292308823590749   T   T   T
  0.7989982850321889  0.9573853188939524  0.9710267669352524   T   T   T
  0.7010412577885745  0.4571730796152025  0.4709227276470074   F   F   F
  0.7989602450945767  0.5428263549588834  0.9709259684163243   F   F   F
  0.7010412577885745  0.0428271411325980  0.4709227276470074   F   F   F
  0.2968894635383705  0.9978541882830996  0.1470277059009675   F   F   F
  0.2031103809201937  0.4978562331087062  0.6470272072770697   F   F   F
  0.2968894635383705  0.5021437049261337  0.1470277059009675   F   F   F
  0.2031103809201937  0.0021436352165622  0.6470272072770697   F   F   F
  0.7031092406250252  0.0021436352165622  0.8529705489725998   F   F   F
  0.7968873384894692  0.5021437049261337  0.3529725433537791   F   F   F
  0.7031092406250252  0.4978562331087062  0.8529705489725998   F   F   F
  0.7968873384894692  0.9978541882830996  0.3529725433537791   F   F   F
  0.1089945125258041  0.1267462458944166  0.0958675716257531   F   F   F
  0.3908635555666911  0.6267553276319354  0.5959893131883978   T   T   T
  0.1089945125258041  0.3732537231230069  0.0958675716257531   F   F   F
  0.3911475408327841  0.8733024335421012  0.5960799172268435   T   T   T
  0.8908146269411327  0.8732841647606713  0.9042472941047514   T   T   T
  0.6089963264918268  0.3732537231230069  0.4041326776289935   F   F   F
  0.8908752084605588  0.6267888753598344  0.9042971259633921   T   T   T
  0.6089963264918268  0.1267462458944166  0.4041326776289935   F   F   F
  0.0831230624880561  0.0463555451647792  0.9432918525879828   F   F   F
  0.4168772743473781  0.5463556148743507  0.4432953427264508   F   F   F
  0.0831230624880561  0.4536443231604892  0.9432918525879828   F   F   F
  0.4169115467756858  0.9536695535632598  0.4432881500559416   T   T   T
  0.9169347238612509  0.9536078324341714  0.0567604786449176   T   T   T
  0.5831219221928876  0.4536443231604892  0.5567044079043981   F   F   F
  0.9168746569216140  0.5463556148743507  0.0567046073768367   F   F   F
  0.5831219221928876  0.0463555451647792  0.5567044079043981   F   F   F
  0.1289594096811513  0.0794088515588598  0.7630605786104070   F   F   F
  0.3710404347774130  0.5794078136547611  0.2630588335983788   F   F   F
  0.1289594096811513  0.4205916209193248  0.7630605786104070   F   F   F
  0.3710549839551269  0.9205816767449402  0.2630561034573544   T   T   T
  0.8710115319286512  0.9205974777445269  0.2368927357772304   T   T   T
  0.6289572846322500  0.4205916209193248  0.7369409170324701   F   F   F
  0.8710392944822516  0.5794078136547611  0.2369414156563678   F   F   F
  0.6289572846322500  0.0794088515588598  0.7369409170324701   F   F   F
  0.0736370383795882  0.9602611913717167  0.7910861695434382   T   T   T
  0.4264234770219275  0.4603035986101247  0.2908791712086156   F   F   F
  0.0735763674366368  0.5396948290424461  0.7908816640992882   F   F   F
  0.4264234770219275  0.0396965214455207  0.2908791712086156   F   F   F
  0.9264218443498962  0.0396965214455207  0.2091210780461239   F   F   F
  0.5735747347645983  0.5396948290424461  0.7091213273008705   F   F   F
  0.9264218443498962  0.4603035986101247  0.2091210780461239   F   F   F
  0.5735857122450572  0.9602735434875773  0.7089590252564693   T   T   T
  0.2164897374951735  0.1361624724563342  0.6465164061644657   F   F   F
  0.2836165246417402  0.6362419523377019  0.1466748179214932   T   T   T
  0.2164897374951735  0.3638374965610893  0.6465164061644657   F   F   F
  0.2837202869556185  0.8637351860702966  0.1467414266628336   T   T   T
  0.7837530427870438  0.8637453172985305  0.3533794775403764   T   T   T
  0.7164920438380662  0.3638374965610893  0.8534865852357001   F   F   F
  0.7836023973721943  0.6362004777868120  0.3534502120667181   T   T   T
  0.7164920438380662  0.1361624724563342  0.8534865852357001   F   F   F
  0.4962967442682593  0.8527773904914313  0.7134997203896095   T   T   T
  0.0041870743915737  0.3531359346833085  0.2140092128513800   F   F   F
  0.4958267458052752  0.6468945685226970  0.7136936885382796   T   T   T
  0.0041870743915737  0.1468645377948761  0.2140092128513800   F   F   F
  0.5041889868329790  0.1468645377948761  0.2859910364033666   F   F   F
  0.9958735595941752  0.6469508559156580  0.7867771508203893   T   T   T
  0.5041889868329790  0.3531359346833085  0.2859910364033666   F   F   F
  0.9961144100300954  0.8529353438306175  0.7872074380199349   T   T   T
  0.3782643532612365  0.8335186543325805  0.7862961795327779   T   T   T
  0.1223394027201721  0.3330694992409491  0.2858078061360345   F   F   F
  0.3777296602831944  0.6667893575222688  0.7860312025536924   T   T   T
  0.1223394027201721  0.1669304697764744  0.2858078061360345   F   F   F
  0.6223397395555992  0.1669304697764744  0.2141924431187121   F   F   F
  0.8778654640250075  0.6667657993311279  0.7142373304448019   T   T   T
  0.6223397395555992  0.3330694992409491  0.2141924431187121   F   F   F
  0.8783140669468809  0.8335105398255014  0.7139677489085617   T   T   T
  0.4237441184565589  0.7500223939955909  0.6476047794563504   T   T   T
  0.0759210660716789  0.2499999845087117  0.1472423470712698   F   F   F
  0.5759233724145716  0.2499999845087117  0.3527571543048325   F   F   F
  0.9237329275982056  0.7500359667942467  0.8529699926072698   T   T   T
  0.3173906521937742  0.8648643460746852  0.9553414627600194   T   T   T
  0.1824719122124066  0.3646364887844626  0.4553085173556966   F   F   F
  0.3173523133137003  0.6351952965718876  0.9553211658654895   T   T   T
  0.1824719122124066  0.1353634802329609  0.4553085173556966   F   F   F
  0.6824737261784293  0.1353634802329609  0.0446917318990501   F   F   F
  0.8174774409031106  0.6352844565018052  0.5447890243221573   T   T   T
  0.6824737261784293  0.3646364887844626  0.0446917318990501   F   F   F
  0.8175236203059192  0.8647538850255446  0.5447478196311850   T   T   T
  0.2480539841535414  0.8463825235642443  0.7902115295273688   T   T   T
  0.2524421114837594  0.3470289556854951  0.2906039518682988   F   F   F
  0.2475668211386694  0.6531641363760898  0.7903721164036452   T   T   T
  0.2524421114837594  0.1529710133319284  0.2906039518682988   F   F   F
  0.7524404788117280  0.1529710133319284  0.2093955495078035   F   F   F
  0.7476857431711427  0.6531889163962556  0.7096611867202148   T   T   T
  0.7524404788117280  0.3470289556854951  0.2093955495078035   F   F   F
  0.7481422737293849  0.8463747136423080  0.7098100817680293   T   T   T
  0.2960812295385984  0.7500252087642973  0.0500915479703314   T   T   T
  0.2047514730139781  0.2499999845087117  0.5502479715865078   F   F   F
  0.7047488555882140  0.2499999845087117  0.9497535240563693   F   F   F
  0.7956348833612747  0.7499959670463998  0.4499706606349119   T   T   T
  0.1961822720743846  0.8321013444010257  0.0071503257050340   T   T   T
  0.3039663962308268  0.3327165732493995  0.5062562540965345   F   F   F
  0.1962008394720151  0.6680105329309686  0.0069182988925437   T   T   T
  0.3039663962308268  0.1672833957680240  0.5062562540965345   F   F   F
  0.8039677178199867  0.1672833957680240  0.9937437457890610   F   F   F
  0.6961023250190682  0.6675477902502880  0.4934192475357524   T   T   T
  0.8039677178199867  0.3327165732493995  0.9937437457890610   F   F   F
  0.6961422912213110  0.8325780181658302  0.4931655494198793   T   T   T
  0.0928175066537445  0.7500672183747098  0.0202346350912017   T   T   T
  0.4068436185756568  0.2499999845087117  0.5199588865784506   F   F   F
  0.9068449401648166  0.2499999845087117  0.9800426090644265   F   F   F
  0.5932433708940561  0.7500955360730833  0.4800348411869655   T   T   T
  0.0813569718191997  0.8699971987961277  0.9350769703735471   T   T   T
  0.4191683039040441  0.3696157156837501  0.4342048778308225   F   F   F
  0.0813855052177277  0.6303175132954534  0.9344431444233526   T   T   T
  0.4191683039040441  0.1303842533336734  0.4342048778308225   F   F   F
  0.9191691331163412  0.1303842533336734  0.0657950722724649   F   F   F
  0.5809718228217787  0.6303607156434508  0.5654976240085924   T   T   T
  0.9191691331163412  0.3696157156837501  0.0657950722724649   F   F   F
  0.5811652299164112  0.8699390638795366  0.5651566275965937   T   T   T
  0.1216559885080320  0.8398646848386663  0.7483870816537770   T   T   T
  0.3785939882759877  0.3399014617306690  0.2475052014770824   F   F   F
  0.1213025889952584  0.6600554302906284  0.7474749549710360   T   T   T
  0.3785939882759877  0.1600985072867545  0.2475052014770824   F   F   F
  0.8785923556039563  0.1600985072867545  0.2524942998990269   F   F   F
  0.6213717583046162  0.6601117862610625  0.7521979199879790   T   T   T
  0.8785923556039563  0.3399014617306690  0.2524942998990269   F   F   F
  0.6218499494767851  0.8400138873880760  0.7518672445715794   T   T   T
  0.2028028438949554  0.7499367901663058  0.6707142651803262   T   T   T
  0.2968136375010317  0.2499999845087117  0.1713180563201462   F   F   F
  0.7968134819595960  0.2499999845087117  0.3286821929346004   F   F   F
  0.7028609482748656  0.7499193312709159  0.8292408324801654   T   T   T
  0.4240098456256689  0.0712240900116683  0.6879802938438928   F   F   F
  0.0759899988328954  0.5712215417252935  0.1879807924677834   F   F   F
  0.4240098456256689  0.4287758790057552  0.6879802938438928   F   F   F
  0.0759492839417591  0.9288512283754896  0.1883184242273705   T   T   T
  0.5759224699593775  0.9288375522439237  0.3116997941621387   T   T   T
  0.9240091977073703  0.4287758790057552  0.8120167145271324   F   F   F
  0.5759923051757880  0.5712215417252935  0.3120194567869561   F   F   F
  0.9240091977073703  0.0712240900116683  0.8120167145271324   F   F   F
  0.3227200462962543  0.0323507269059107  0.8432556054107536   F   F   F
  0.1772802905391799  0.5323493365792871  0.3432575997919329   F   F   F
  0.3227200462962543  0.4676490910732838  0.8432556054107536   F   F   F
  0.1773342110888053  0.9677132643558478  0.3433653510533116   T   T   T
  0.6772893980912410  0.9677077630690137  0.1566553028841715   T   T   T
  0.8227174288704902  0.4676490910732838  0.6567428987175532   F   F   F
  0.6772791502440114  0.5323493365792871  0.1567426494628066   F   F   F
  0.8227174288704902  0.0323507269059107  0.6567428987175532   F   F   F
  0.2779388627266144  0.0519581571749583  0.0611307027569552   F   F   F
  0.2220614741088127  0.5519591331138969  0.5611303537087835   F   F   F
  0.2779388627266144  0.4480418118424652  0.0611307027569552   F   F   F
  0.2221061644290704  0.9479986663854019  0.5612730925981758   T   T   T
  0.7221618830743821  0.9481048987061300  0.9388234603067608   T   T   T
  0.7779406766926442  0.4480418118424652  0.4388693969220654   F   F   F
  0.7220608261905141  0.5519591331138969  0.9388718898127308   F   F   F
  0.7779406766926442  0.0519581571749583  0.4388693969220654   F   F   F
  0.1225102574926140  0.0527777912894223  0.0479940648314354   F   F   F
  0.3774895869659503  0.5527797741498759  0.5479938653589969   F   F   F
  0.1225102574926140  0.4472221777280012  0.0479940648314354   F   F   F
  0.3775420228133952  0.9471958195813763  0.5479194872906294   T   T   T
  0.8774886637275106  0.9472780531449952  0.9521335294310174   T   T   T
  0.6225120714586438  0.4472221777280012  0.4520058852718520   F   F   F
  0.8774894314245145  0.5527797741498759  0.9520046387693171   F   F   F
  0.6225120714586438  0.0527777912894223  0.4520058852718520   F   F   F
  0.0722297167086126  0.0390952886079958  0.8235415244030406   F   F   F
  0.4277701277499517  0.5390957107400993  0.3235405272696497   F   F   F
  0.0722297167086126  0.4609047307555016  0.8235415244030406   F   F   F
  0.4277536937496016  0.9608332121526252  0.3235296832437192   T   T   T
  0.9277560663875284  0.9608921819816556  0.1765089807441336   T   T   T
  0.5722305459209096  0.4609047307555016  0.6764599712398365   F   F   F
  0.9277709569622488  0.5390957107400993  0.1764597219850899   F   F   F
  0.5722305459209096  0.0390952886079958  0.6764599712398365   F   F   F
  0.2011044375688371  0.0703823036238376  0.7135285761392041   F   F   F
  0.2988958992665900  0.5703807622589849  0.2135283268844574   F   F   F
  0.2011044375688371  0.4296176653935859  0.7135285761392041   F   F   F
  0.2989457662889355  0.9295943441124047  0.2135914232606153   T   T   T
  0.7989007993722683  0.9296087353087045  0.2864533197248091   T   T   T
  0.7011052667811342  0.4296176653935859  0.7864691801104584   F   F   F
  0.7988962361020242  0.5703807622589849  0.2864719223702821   F   F   F
  0.7011052667811342  0.0703823036238376  0.7864691801104584   F   F   F
  0.4226372243533785  0.8278987793891405  0.6853858981660095   T   T   T
  0.0776148424901066  0.3277151940767524  0.1851852221033425   F   F   F
  0.4223041327032983  0.6721513519942469  0.6853136527185824   T   T   T
  0.0776148424901066  0.1722847749406711  0.1851852221033425   F   F   F
  0.5776171488329993  0.1722847749406711  0.3148150271514041   F   F   F
  0.9223539795231713  0.6723198124066447  0.8151194797979724   T   T   T
  0.5776171488329993  0.3277151940767524  0.3148150271514041   F   F   F
  0.9224681615628556  0.8277716781812183  0.8151570678201105   T   T   T
  0.3170425871379482  0.8745105629827126  0.8348036153486932   T   T   T
  0.1830681805969121  0.3744866985200090  0.3347841347761005   F   F   F
  0.3168020019431979  0.6254939667965266  0.8348154867717544   T   T   T
  0.1830681805969121  0.1255132704974145  0.3347841347761005   F   F   F
  0.6830695021860791  0.1255132704974145  0.1652161144786461   F   F   F
  0.8169633783861722  0.6255370083202033  0.6653299027332944   T   T   T
  0.6830695021860791  0.3744866985200090  0.1652161144786461   F   F   F
  0.8171603089357410  0.8744808280467170  0.6653034612860128   T   T   T
  0.2729881678856643  0.8276292012813915  0.0400808702577558   T   T   T
  0.2273308913268437  0.3277297944387385  0.5397963675621256   F   F   F
  0.2729668403381426  0.6724374132509739  0.0400521483887471   T   T   T
  0.2273308913268437  0.1722701745786850  0.5397963675621256   F   F   F
  0.7273292586548052  0.1722701745786850  0.9602013886875440   F   F   F
  0.7728405853217722  0.6723070204481160  0.4601683551552762   T   T   T
  0.7273292586548052  0.3277297944387385  0.9602013886875440   F   F   F
  0.7728993232550427  0.8277043986877396  0.4601101503985245   T   T   T
  0.1172047618499630  0.8279008901133830  0.0236886679318271   T   T   T
  0.3829047477362622  0.3279865594254545  0.5228270011711871   F   F   F
  0.1172312408181033  0.6722339856612608  0.0232402866825114   T   T   T
  0.3829047477362622  0.1720134095919690  0.5228270011711871   F   F   F
  0.8829055769485592  0.1720134095919690  0.9771707550784754   F   F   F
  0.6171470111746344  0.6720782955973571  0.4768155972303468   T   T   T
  0.8829055769485592  0.3279865594254545  0.9771707550784754   F   F   F
  0.6171899581185178  0.8281039976720884  0.4764947415715735   T   T   T
  0.0686216240422971  0.8805628017332472  0.8159301711731526   T   T   T
  0.4316421794227736  0.3805307449230426  0.3150521046809729   F   F   F
  0.0684421663142448  0.6194324762487435  0.8153996081612210   T   T   T
  0.4316421794227736  0.1194692240943809  0.3150521046809729   F   F   F
  0.9316410391276122  0.1194692240943809  0.1849473966951294   F   F   F
  0.5683617288333201  0.6194331068874955  0.6846247527553675   T   T   T
  0.9316410391276122  0.3805307449230426  0.1849473966951294   F   F   F
  0.5687096339488517  0.8805432595451078  0.6843737723798052   T   T   T
  0.1950234249336067  0.8280151947811635  0.7035296402971234   T   T   T
  0.3049811849512878  0.3281471634073441  0.2034828209627761   F   F   F
  0.1948470382655240  0.6718387960733370  0.7033369066641399   T   T   T
  0.3049811849512878  0.1718528056100794  0.2034828209627761   F   F   F
  0.8049820141635848  0.1718528056100794  0.2965174282919705   F   F   F
  0.6948877721662977  0.6718519180027097  0.7965835677049536   T   T   T
  0.8049820141635848  0.3281471634073441  0.2965174282919705   F   F   F
  0.6952324375955922  0.8280206122918260  0.7966589951674542   T   T   T
  0.4401285900683227  0.7499835722202418  0.4170833143063522   T   T   T
  0.3219097470025225  0.7493431510426931  0.4621292842630654   T   T   T
  0.2868540120869094  0.7493709712128934  0.4820615731740057   T   T   T
 
  0.00000000E+00  0.00000000E+00  0.00000000E+00
  0.00000000E+00  0.00000000E+00  0.00000000E+00
  0.00000000E+00  0.00000000E+00  0.00000000E+00
  0.00000000E+00  0.00000000E+00  0.00000000E+00
  0.00000000E+00  0.00000000E+00  0.00000000E+00
  0.00000000E+00  0.00000000E+00  0.00000000E+00
  0.00000000E+00  0.00000000E+00  0.00000000E+00
  0.00000000E+00  0.00000000E+00  0.00000000E+00
  0.00000000E+00  0.00000000E+00  0.00000000E+00
  0.00000000E+00  0.00000000E+00  0.00000000E+00
  0.00000000E+00  0.00000000E+00  0.00000000E+00
  0.00000000E+00  0.00000000E+00  0.00000000E+00
  0.00000000E+00  0.00000000E+00  0.00000000E+00
  0.00000000E+00  0.00000000E+00  0.00000000E+00
  0.00000000E+00  0.00000000E+00  0.00000000E+00
  0.00000000E+00  0.00000000E+00  0.00000000E+00
  0.00000000E+00  0.00000000E+00  0.00000000E+00
  0.00000000E+00  0.00000000E+00  0.00000000E+00
  0.00000000E+00  0.00000000E+00  0.00000000E+00
  0.00000000E+00  0.00000000E+00  0.00000000E+00
  0.00000000E+00  0.00000000E+00  0.00000000E+00
  0.00000000E+00  0.00000000E+00  0.00000000E+00
  0.00000000E+00  0.00000000E+00  0.00000000E+00
  0.00000000E+00  0.00000000E+00  0.00000000E+00
  0.00000000E+00  0.00000000E+00  0.00000000E+00
  0.00000000E+00  0.00000000E+00  0.00000000E+00
  0.00000000E+00  0.00000000E+00  0.00000000E+00
  0.00000000E+00  0.00000000E+00  0.00000000E+00
  0.00000000E+00  0.00000000E+00  0.00000000E+00
  0.00000000E+00  0.00000000E+00  0.00000000E+00
  0.00000000E+00  0.00000000E+00  0.00000000E+00
  0.00000000E+00  0.00000000E+00  0.00000000E+00
  0.00000000E+00  0.00000000E+00  0.00000000E+00
  0.00000000E+00  0.00000000E+00  0.00000000E+00
  0.00000000E+00  0.00000000E+00  0.00000000E+00
  0.00000000E+00  0.00000000E+00  0.00000000E+00
  0.00000000E+00  0.00000000E+00  0.00000000E+00
  0.00000000E+00  0.00000000E+00  0.00000000E+00
  0.00000000E+00  0.00000000E+00  0.00000000E+00
  0.00000000E+00  0.00000000E+00  0.00000000E+00
  0.00000000E+00  0.00000000E+00  0.00000000E+00
  0.00000000E+00  0.00000000E+00  0.00000000E+00
  0.00000000E+00  0.00000000E+00  0.00000000E+00
  0.00000000E+00  0.00000000E+00  0.00000000E+00
  0.00000000E+00  0.00000000E+00  0.00000000E+00
  0.00000000E+00  0.00000000E+00  0.00000000E+00
  0.00000000E+00  0.00000000E+00  0.00000000E+00
  0.00000000E+00  0.00000000E+00  0.00000000E+00
  0.00000000E+00  0.00000000E+00  0.00000000E+00
  0.00000000E+00  0.00000000E+00  0.00000000E+00
  0.00000000E+00  0.00000000E+00  0.00000000E+00
  0.00000000E+00  0.00000000E+00  0.00000000E+00
  0.00000000E+00  0.00000000E+00  0.00000000E+00
  0.00000000E+00  0.00000000E+00  0.00000000E+00
  0.00000000E+00  0.00000000E+00  0.00000000E+00
  0.00000000E+00  0.00000000E+00  0.00000000E+00
  0.00000000E+00  0.00000000E+00  0.00000000E+00
  0.00000000E+00  0.00000000E+00  0.00000000E+00
  0.00000000E+00  0.00000000E+00  0.00000000E+00
  0.00000000E+00  0.00000000E+00  0.00000000E+00
  0.00000000E+00  0.00000000E+00  0.00000000E+00
  0.00000000E+00  0.00000000E+00  0.00000000E+00
  0.00000000E+00  0.00000000E+00  0.00000000E+00
  0.00000000E+00  0.00000000E+00  0.00000000E+00
  0.00000000E+00  0.00000000E+00  0.00000000E+00
  0.00000000E+00  0.00000000E+00  0.00000000E+00
  0.00000000E+00  0.00000000E+00  0.00000000E+00
  0.00000000E+00  0.00000000E+00  0.00000000E+00
  0.00000000E+00  0.00000000E+00  0.00000000E+00
  0.00000000E+00  0.00000000E+00  0.00000000E+00
  0.00000000E+00  0.00000000E+00  0.00000000E+00
  0.00000000E+00  0.00000000E+00  0.00000000E+00
  0.00000000E+00  0.00000000E+00  0.00000000E+00
  0.00000000E+00  0.00000000E+00  0.00000000E+00
  0.00000000E+00  0.00000000E+00  0.00000000E+00
  0.00000000E+00  0.00000000E+00  0.00000000E+00
  0.00000000E+00  0.00000000E+00  0.00000000E+00
  0.00000000E+00  0.00000000E+00  0.00000000E+00
  0.00000000E+00  0.00000000E+00  0.00000000E+00
  0.00000000E+00  0.00000000E+00  0.00000000E+00
  0.00000000E+00  0.00000000E+00  0.00000000E+00
  0.00000000E+00  0.00000000E+00  0.00000000E+00
  0.00000000E+00  0.00000000E+00  0.00000000E+00
  0.00000000E+00  0.00000000E+00  0.00000000E+00
  0.00000000E+00  0.00000000E+00  0.00000000E+00
  0.00000000E+00  0.00000000E+00  0.00000000E+00
  0.00000000E+00  0.00000000E+00  0.00000000E+00
  0.00000000E+00  0.00000000E+00  0.00000000E+00
  0.00000000E+00  0.00000000E+00  0.00000000E+00
  0.00000000E+00  0.00000000E+00  0.00000000E+00
  0.00000000E+00  0.00000000E+00  0.00000000E+00
  0.00000000E+00  0.00000000E+00  0.00000000E+00
  0.00000000E+00  0.00000000E+00  0.00000000E+00
  0.00000000E+00  0.00000000E+00  0.00000000E+00
  0.00000000E+00  0.00000000E+00  0.00000000E+00
  0.00000000E+00  0.00000000E+00  0.00000000E+00
  0.00000000E+00  0.00000000E+00  0.00000000E+00
  0.00000000E+00  0.00000000E+00  0.00000000E+00
  0.00000000E+00  0.00000000E+00  0.00000000E+00
  0.00000000E+00  0.00000000E+00  0.00000000E+00
  0.00000000E+00  0.00000000E+00  0.00000000E+00
  0.00000000E+00  0.00000000E+00  0.00000000E+00
  0.00000000E+00  0.00000000E+00  0.00000000E+00
  0.00000000E+00  0.00000000E+00  0.00000000E+00
  0.00000000E+00  0.00000000E+00  0.00000000E+00
  0.00000000E+00  0.00000000E+00  0.00000000E+00
  0.00000000E+00  0.00000000E+00  0.00000000E+00
  0.00000000E+00  0.00000000E+00  0.00000000E+00
  0.00000000E+00  0.00000000E+00  0.00000000E+00
  0.00000000E+00  0.00000000E+00  0.00000000E+00
  0.00000000E+00  0.00000000E+00  0.00000000E+00
  0.00000000E+00  0.00000000E+00  0.00000000E+00
  0.00000000E+00  0.00000000E+00  0.00000000E+00
  0.00000000E+00  0.00000000E+00  0.00000000E+00
  0.00000000E+00  0.00000000E+00  0.00000000E+00
  0.00000000E+00  0.00000000E+00  0.00000000E+00
  0.00000000E+00  0.00000000E+00  0.00000000E+00
  0.00000000E+00  0.00000000E+00  0.00000000E+00
  0.00000000E+00  0.00000000E+00  0.00000000E+00
  0.00000000E+00  0.00000000E+00  0.00000000E+00
  0.00000000E+00  0.00000000E+00  0.00000000E+00
  0.00000000E+00  0.00000000E+00  0.00000000E+00
  0.00000000E+00  0.00000000E+00  0.00000000E+00
  0.00000000E+00  0.00000000E+00  0.00000000E+00
  0.00000000E+00  0.00000000E+00  0.00000000E+00
  0.00000000E+00  0.00000000E+00  0.00000000E+00
  0.00000000E+00  0.00000000E+00  0.00000000E+00
  0.00000000E+00  0.00000000E+00  0.00000000E+00
  0.00000000E+00  0.00000000E+00  0.00000000E+00
  0.00000000E+00  0.00000000E+00  0.00000000E+00
  0.00000000E+00  0.00000000E+00  0.00000000E+00
  0.00000000E+00  0.00000000E+00  0.00000000E+00
  0.00000000E+00  0.00000000E+00  0.00000000E+00
  0.00000000E+00  0.00000000E+00  0.00000000E+00
  0.00000000E+00  0.00000000E+00  0.00000000E+00
  0.00000000E+00  0.00000000E+00  0.00000000E+00
  0.00000000E+00  0.00000000E+00  0.00000000E+00
  0.00000000E+00  0.00000000E+00  0.00000000E+00
  0.00000000E+00  0.00000000E+00  0.00000000E+00
  0.00000000E+00  0.00000000E+00  0.00000000E+00
  0.00000000E+00  0.00000000E+00  0.00000000E+00
  0.00000000E+00  0.00000000E+00  0.00000000E+00
  0.00000000E+00  0.00000000E+00  0.00000000E+00
  0.00000000E+00  0.00000000E+00  0.00000000E+00
  0.00000000E+00  0.00000000E+00  0.00000000E+00
  0.00000000E+00  0.00000000E+00  0.00000000E+00
  0.00000000E+00  0.00000000E+00  0.00000000E+00
  0.00000000E+00  0.00000000E+00  0.00000000E+00
  0.00000000E+00  0.00000000E+00  0.00000000E+00
  0.00000000E+00  0.00000000E+00  0.00000000E+00
  0.00000000E+00  0.00000000E+00  0.00000000E+00
  0.00000000E+00  0.00000000E+00  0.00000000E+00
  0.00000000E+00  0.00000000E+00  0.00000000E+00
  0.00000000E+00  0.00000000E+00  0.00000000E+00
  0.00000000E+00  0.00000000E+00  0.00000000E+00
  0.00000000E+00  0.00000000E+00  0.00000000E+00
  0.00000000E+00  0.00000000E+00  0.00000000E+00
  0.00000000E+00  0.00000000E+00  0.00000000E+00
  0.00000000E+00  0.00000000E+00  0.00000000E+00
  0.00000000E+00  0.00000000E+00  0.00000000E+00
  0.00000000E+00  0.00000000E+00  0.00000000E+00
  0.00000000E+00  0.00000000E+00  0.00000000E+00
  0.00000000E+00  0.00000000E+00  0.00000000E+00
  0.00000000E+00  0.00000000E+00  0.00000000E+00
  0.00000000E+00  0.00000000E+00  0.00000000E+00
  0.00000000E+00  0.00000000E+00  0.00000000E+00
  0.00000000E+00  0.00000000E+00  0.00000000E+00
  0.00000000E+00  0.00000000E+00  0.00000000E+00
  0.00000000E+00  0.00000000E+00  0.00000000E+00
  0.00000000E+00  0.00000000E+00  0.00000000E+00
  0.00000000E+00  0.00000000E+00  0.00000000E+00