 O Si  V  H 
 1.0000000000000000
    20.3096463179830877    0.0000000000000000    0.0000000000000000
     0.0000000000000000   19.8625212307842212    0.0000000000000000
     0.0000000000000000    0.0000000000000000   13.3711533343531652
 O   Si  V   H  
 192  96   1   2
Selective dynamics
Cartesian
 10.2074441472539608  1.4455920571236711  9.4604249957828941   F   F   F
 20.2570253297206690 11.3768526725157813  2.7748483286063115   F   F   F
 10.2074441472539608  8.4856685582684399  9.4604249957828941   F   F   F
 20.2559771622729770 18.4157483624498255  2.7741379222977725   F   F   F
 10.1106573758712326 18.4344076690909837  3.8909407548333208   F   F   F
  0.0526209882624183  8.4856685582684399 10.5963050057468546   F   F   F
 10.1022021707291270 11.3768526725157813  3.9107283385702711   F   F   F
  0.0526209882624183  1.4455920571236711 10.5963050057468546   F   F   F
  7.8574470561008258  1.3782397496433998 10.6412964171056164   F   F   F
  2.2973761028907185 11.3095003650355110  3.9557197499290346   F   F   F
  7.8574470561008258  8.5530208657487101 10.6412964171056164   F   F   F
  2.2910645642274639 18.4902312567531872  3.9616536637024318   F   F   F
 12.4550782044156989 18.4850887346487589  2.7222883727744409   F   F   F
 18.0122702150923679  8.5530208657487101  9.4154335844241306   F   F   F
 12.4521992618822619 11.3095003650355110  2.7298569172475480   F   F   F
 18.0122702150923679  1.3782397496433998  9.4154335844241306   F   F   F
  8.1725947172854614  2.7725725698066146  8.4232488031646700   F   F   F
  1.9884539636497898 12.7047680890285495  1.7413382152346195   F   F   F
  8.1725947172854614  7.1586880455854951  8.4232488031646700   F   F   F
  1.9870472216867900 17.0876580385137515  1.7476988139188370   F   F   F
 12.1505914938680863 17.0914946455069412  4.9347689153719871   F   F   F
 18.3274178762770035  7.1586880455854951 11.6334811983650788   F   F   F
 12.1584734534059891 12.7013962202404116  4.9385987240055655   F   F   F
 18.3274178762770035  2.7725725698066146 11.6334811983650788   F   F   F
  8.2153166660147221  0.1029381220613197  8.3269034275119509   F   F   F
  1.9395064929768218 10.0341987374534298  1.6413267603352724   F   F   F
  8.2153166660147221  9.8283224933307913  8.3269034275119509   F   F   F
  1.9402539809829418 19.7574153859654906  1.6399454290415059   F   F   F
 12.1017358639389823 19.7562630771631227  5.0445241012412048   F   F   F
 18.3701398250062660  9.8283224933307913 11.7298265740177978   F   F   F
 12.0943296519683656 10.0341987374534298  5.0442499068413102   F   F   F
 18.3701398250062660  0.1029381220613197 11.7298265740177978   F   F   F
  6.5887154352565247  0.7852118051446575 12.8897032740910973   F   F   F
  3.5661077237350187 10.7164724205367676  6.2041266069144205   F   F   F
  6.5887154352565247  9.1460488102474535 12.8897032740910973   F   F   F
  3.5688375210791619 19.0803662885737033  6.2036784576819244   F   F   F
 13.7238649927673784 19.0806848619596572  0.4799889827615328   F   F   F
 16.7435385942480686  9.1460488102474535  7.1670267274386505   F   F   F
 13.7209308827265630 10.7164724205367676  0.4814500602620672   F   F   F
 16.7435385942480686  0.7852118051446575  7.1670267274386505   F   F   F
  6.6029440785670266 18.9411599859186310 10.8117167922855977   F   F   F
  3.5614151128380791  9.0137536510646292  4.1293696433153393   F   F   F
  6.5934080461534652 10.8487675797195919 10.8149463104919210   F   F   F
  3.5614151128380791  0.9175069643274809  4.1293696433153393   F   F   F
 13.7162382718296225  0.9175069643274809  2.5562070238612433   F   F   F
 16.7482312051450108 10.8487675797195919  9.2417836910378259   F   F   F
 13.7162382718296225  9.0137536510646292  2.5562070238612433   F   F   F
 16.7437356407675182 18.9461396923771161  9.2449519741446320   F   F   F
  5.1875978346380416  1.3228882597357992 10.7264487216491453   F   F   F
  4.9672253243535023 11.2541488751279086  4.0408720544725618   F   F   F
  5.1875978346380416  8.6083723556563125 10.7264487216491453   F   F   F
  4.9640072715083079 18.5373232126810805  4.0378885933221342   F   F   F
 15.1247032568926301 18.5404366489436256  2.6431890342793678   F   F   F
 15.3424209936295863  8.6083723556563125  9.3302812798806034   F   F   F
 15.1220484833450453 11.2541488751279086  2.6447046127040204   F   F   F
 15.3424209936295863  1.3228882597357992  9.3302812798806034   F   F   F
  5.9208478308271770  2.5261984263753923  1.3881965166552193   F   F   F
  4.2374468245492496 12.4576234687499348  8.0722024011515199   F   F   F
  5.9208478308271770  7.4050621890167188  1.3881965166552193   F   F   F
  4.2313171995909347 17.3391423791933441  8.0721527865173801   F   F   F
 14.3968061680431916 17.3390269226648854 11.9840027422070410   F   F   F
 16.0756709898187218  7.4050621890167188  5.2973801505213629   F   F   F
 14.3884497798508377 12.4572889880299531 11.9840539431852520   F   F   F
 16.0756709898187218  2.5261984263753923  5.2973801505213629   F   F   F
  4.0830782392452933  0.8506554447103878  0.3887956446629249   F   F   F
  6.0717449197462505 10.7819160601024979  7.0743723118395074   F   F   F
  4.0830782392452933  9.0806051706817232  0.3887956446629249   F   F   F
  6.0743183248951391 19.0094058966223898  7.0791005291110389   F   F   F
 16.2287569197159876 19.0183147347115558 12.9842240449397224   F   F   F
 14.2379013982368381  9.0806051706817232  6.2967810225136578   F   F   F
 16.2265680787377953 10.7819160601024979 12.9823576896902395   F   F   F
 14.2379013982368381  0.8506554447103878  6.2967810225136578   F   F   F
  6.0297217424147993 19.8199434320233259  1.9659273269971054   F   F   F
  4.1251014165767446  9.8886828166312153  8.6515039941735932   F   F   F
  6.0297217424147993  9.9738384141530059  1.9659273269971054   F   F   F
  4.1251014165767446  0.0425777987608954  8.6515039941735932   F   F   F
 14.2799245755682875  0.0425777987608954 11.4052260073561555   F   F   F
 16.1845449014063441  9.9738384141530059  4.7196493401794779   F   F   F
 14.2799245755682875  9.8886828166312153 11.4052260073561555   F   F   F
 16.1845449014063441 19.8199434320233259  4.7196493401794779   F   F   F
  2.2136347901559494  2.5175005587295871  1.2818583479620820   F   F   F
  7.9589293256374312 12.4680843502506189  7.9327632747428174   F   F   F
  2.2136347901559494  7.4137600566625226  1.2818583479620820   F   F   F
  7.9693916569810588 17.3370170893076185  7.9199446852680930   F   F   F
 18.0927587226256570 17.3456229636180836 12.0898797055442415   F   F   F
 12.3684579491474924  7.4137600566625226  5.4037183192145006   F   F   F
 18.0985712049331333 12.4476489405493815 12.0879705396413542   F   F   F
 12.3684579491474924  2.5175005587295871  5.4037183192145006   F   F   F
  1.6881962070130982  0.9207382679108781 12.6129474627524694   F   F   F
  8.4666269519784461 10.8519988833029899  5.9273707955758868   F   F   F
  1.6881962070130982  9.0105223474812313 12.6129474627524694   F   F   F
  8.4752303162476643 18.9668788540650510  5.9197452718360992   F   F   F
 18.6226080830525973 18.9404984058387100  0.7587663188990417   F   F   F
 11.8430193660046434  9.0105223474812313  7.4437825387772794   F   F   F
 18.6214501109699881 10.8519988833029899  0.7582058716006961   F   F   F
 11.8430193660046434  0.9207382679108781  7.4437825387772794   F   F   F
  2.6191221466297452  1.5772552032846385 10.2029786362431807   F   F   F
  7.5357010123617982 11.5085158186767487  3.5174019690665985   F   F   F
  2.6191221466297452  8.3540054121074725 10.2029786362431807   F   F   F
  7.5339674498560454 18.2905346910868758  3.5116820887739131   F   F   F
 17.6912054798827931 18.2847734684553380  3.1694031145057089   F   F   F
 12.7739453056212895  8.3540054121074725  9.8537513652865663   F   F   F
 17.6905241713533421 11.5085158186767487  3.1681746981099845   F   F   F
 12.7739453056212895  1.5772552032846385  9.8537513652865663   F   F   F
  1.4959548934367890 19.0731229622593332 10.5773695624788431   F   F   F
  8.6605141216446260  9.1427877065086367  3.8893856967007774   F   F   F
  1.4943090373469170 10.7197335242755862 10.5749623638772636   F   F   F
  8.6605141216446260  0.7884729088834742  3.8893856967007774   F   F   F
 18.8153372806361716  0.7884729088834742  2.7961909704758057   F   F   F
 11.6491321963384618 10.7197335242755862  9.4817676376524833   F   F   F
 18.8153372806361716  9.1427877065086367  2.7961909704758057   F   F   F
 11.6256725883466565 19.0702911061690088  9.4807388563340584   F   F   F
  4.3968316384186590  2.7045309019182375  8.6446672192582152   F   F   F
  5.7523956682395010 12.6278084834665520  1.9494879104191600   F   F   F
  4.3968316384186590  7.2267297134738726  8.6446672192582152   F   F   F
  5.7578965286198986 17.1617684034917808  1.9509767704955068   F   F   F
 15.9168019744524258 17.1563693341083443  4.7260094056449056   F   F   F
 14.5516547974102028  7.2267297134738726 11.4120627822715335   F   F   F
 15.9152214846202078 12.6353998284034432  4.7280667512078383   F   F   F
 14.5516547974102028  2.7045309019182375 11.4120627822715335   F   F   F
 10.0890982380436043 16.8967792834632995  9.5285696682320431   F   F   F
  0.0850379718339152  7.0141658028945288  2.8615498313442469   F   F   F
 10.0903840952127801 12.8875030269024151  9.5271305903633792   F   F   F
  0.0850379718339152  2.9170948124975822  2.8615498313442469   F   F   F
 10.2398611308254601  2.9170948124975822  3.8240268358323357   F   F   F
 20.2369974804720023 12.8583675842377225 10.5210150072065183   F   F   F
 10.2398611308254601  7.0141658028945288  3.8240268358323357   F   F   F
 20.2323575818319767 16.9394512227165031 10.5254332635474750   F   F   F
  7.6740000896337959 16.5393227415586743 10.4764179206813015   F   F   F
  2.4846705705810739  6.6155995192168131  3.8215753922960478   F   F   F
  7.6827981123074434 13.2493479521258539 10.4858492810521149   F   F   F
  2.4846705705810739  3.3156610961752970  3.8215753922960478   F   F   F
 12.6394937295726173  3.3156610961752970  2.8640012748805352   F   F   F
 17.8435577073781175 13.2380221152802680  9.5440090678059182   F   F   F
 12.6394937295726173  6.6155995192168131  2.8640012748805352   F   F   F
 17.8400868167466768 16.5568205404162043  9.5455163759053150   F   F   F
  8.5655309041179386 14.8981697464454559  8.5552693559460486   F   F   F
  1.5419329197154532  4.9656303076960553  1.9688022888379906   F   F   F
 11.6967560787069971  4.9656303076960553  4.7167743783385925   F   F   F
 18.7602392494980670 14.8970886352574610 11.4034291352922210   F   F   F
  6.4574540122732236 17.1603546874125286 12.7603785964201428   F   F   F
  3.7059346158871325  7.2425982351504699  6.0879969914885113   F   F   F
  6.4605242228969955 12.6298855156541876 12.7629820966608847   F   F   F
  3.7059346158871325  2.6886623802416403  6.0879969914885113   F   F   F
 13.8607577748786781  2.6886623802416403  0.5975796756880712   F   F   F
 16.6056924801984280 12.6174135643730132  7.2842033425873849   F   F   F
 13.8607577748786781  7.2425982351504699  0.5975796756880712   F   F   F
 16.6043107780401691 17.1770935642523348  7.2838274883927241   F   F   F
  5.0413669132820571 16.8087654967228950 10.5568454792012325   F   F   F
  5.1270102565117828  6.8928686523636049  3.8857134349154596   F   F   F
  5.0495649709866743 12.9904113325663157 10.5550544258218295   F   F   F
  5.1270102565117828  3.0383919630285057  3.8857134349154596   F   F   F
 15.2818334155033284  3.0383919630285057  2.7998632322611234   F   F   F
 15.2007234696795592 12.9835353066900652  9.4952151514330474   F   F   F
 15.2818334155033284  6.8928686523636049  2.7998632322611234   F   F   F
 15.1965438682717178 16.8110195390828672  9.4910222718670081   F   F   F
  6.0120868202598627 14.8953967844453352  0.6654100598894952   F   F   F
  4.1584246617385503  4.9656303076960553  7.3574447498228954   F   F   F
 14.3132478207300924  4.9656303076960553 12.6992852517067583   F   F   F
 16.1626748467877519 14.8968486982271102  6.0180664304454208   F   F   F
  3.9870354250912730 16.5298314944697786  0.0862033332670268   F   F   F
  6.1734543920290044  6.6085914233823377  6.7692293982920377   F   F   F
  3.9885483715955332 13.2639929692003804  0.0775026015514689   F   F   F
  6.1734543920290044  3.3226691920097720  6.7692293982920377   F   F   F
 16.3282775510205482  3.3226691920097720 13.2875006032377101   F   F   F
 14.1407715348056833 13.2626913571415201  6.6049043233792704   F   F   F
 16.3282775510205482  6.6085914233823377 13.2875006032377101   F   F   F
 14.1391206308531849 16.5331631552988583  6.5978727736890024   F   F   F
  1.8912611741891980 14.8968272227039478  0.2683734733256372   F   F   F
  8.2628481081252829  4.9656303076960553  6.9524502333987286   F   F   F
 18.4176712671168268  4.9656303076960553 13.1042797681310184   F   F   F
 12.0490302838713852 14.8970994094032871  6.4251285813334702   F   F   F
  1.6524599016981174 17.2802672887300623 12.5032572930254471   F   F   F
  8.5131568979229311  7.3415004446393679  5.8058209428476975   F   F   F
  1.6520734202262304 12.5136004148657953 12.5003031719828517   F   F   F
  8.5131568979229311  2.5897601707527422  5.8058209428476975   F   F   F
 18.6679800569143310  2.5897601707527422  0.8797557243288845   F   F   F
 11.8085236799425957 12.5090422407514819  7.5535792379469155   F   F   F
 18.6679800569143310  7.3415004446393679  0.8797557243288845   F   F   F
 11.8096973851786924 17.2833570176619666  7.5543268632774794   F   F   F
  2.4729312680137197 16.6832907967645419 10.0076558137447158   F   F   F
  7.6891086568283837  6.7513042184734262  3.3094339217652693   F   F   F
  2.4805834753127538 13.1078305699144000 10.0083801699879302   F   F   F
  7.6891086568283837  3.1799563969186848  3.3094339217652693   F   F   F
 17.8439318158197828  3.1799563969186848  3.3761427454113133   F   F   F
 12.6333195429640615 13.1089905238593012 10.0530432282669420   F   F   F
 17.8439318158197828  6.7513042184734262  3.3761427454113133   F   F   F
 12.6322518665468131 16.6898492140346804 10.0575595848709547   F   F   F
  4.1168765940601562 14.8987701722311545  8.9576680218358327   F   F   F
  6.0281749005281000  4.9656303076960553  2.2907179157230457   F   F   F
 16.1829980595196439  4.9656303076960553  4.3948587514535369   F   F   F
 14.2747934399032044 14.8986058473846068 11.0925224487095022   F   F   F
  8.6114921007489755  1.4146856099378582  9.1990931219956522   F   F   F
  1.5433310582425686 11.3459462253299677  2.5135164548190696   F   F   F
  8.6114921007489755  8.5165750054542517  9.1990931219956522   F   F   F
  1.5424599577106051 18.4488623379102599  2.5170310693616180   F   F   F
 11.7000063370672915 18.4481126908702500  4.1639886609390739   F   F   F
 18.7663152597405194  8.5165750054542517 10.8576368795340965   F   F   F
 11.6981542172341122 11.3459462253299677  4.1720602123575130   F   F   F
 18.7663152597405194  1.4146856099378582 10.8576368795340965   F   F   F
  6.5543253377466240  0.6425666935286518 11.2753241723876716   F   F   F
  3.6004978212449203 10.5738273089207624  4.5897475052110890   F   F   F
  6.5543253377466240  9.2886939218634588 11.2753241723876716   F   F   F
  3.6006660410857623 19.2206266498103560  4.5882358478248531   F   F   F
 13.7572417100928561 19.2211126090905360  2.0947269181582646   F   F   F
 16.7091484967381696  9.2886939218634588  8.7814058291420753   F   F   F
 13.7553209802364638 10.5738273089207624  2.0958291619654932   F   F   F
 16.7091484967381696  0.6425666935286518  8.7814058291420753   F   F   F
  5.6448362218964876  1.0320241432667694  0.8173882092636284   F   F   F
  4.5099869370950563 10.9632847586588795  7.5029648764402106   F   F   F
  5.6448362218964876  8.8992364721253416  0.8173882092636284   F   F   F
  4.5094236716128426 18.8325565703739919  7.5021893949965923   F   F   F
 14.6684449255273819 18.8338953207862865 12.5550913284380012   F   F   F
 15.7996593808880306  8.8992364721253416  5.8681884579129546   F   F   F
 14.6648100960866010 10.9632847586588795 12.5537651250895372   F   F   F
 15.7996593808880306  1.0320241432667694  5.8681884579129546   F   F   F
  2.4881439176978279  1.0483023193839807  0.6417355337127613   F   F   F
  7.6666792412937159 10.9795629347759487  7.3273122008893434   F   F   F
  2.4881439176978279  8.8829582960081304  0.6417355337127613   F   F   F
  7.6715832724023185 18.8301513001234859  7.3075068249001633   F   F   F
 17.8219684292165077 18.8151239166798803 12.7308731354996674   F   F   F
 12.6429670766893718  8.8829582960081304  6.0438411334638209   F   F   F
 17.8215024002852616 10.9795629347759487 12.7294178006404035   F   F   F
 12.6429670766893718  1.0483023193839807  6.0438411334638209   F   F   F
  1.4669611892426841  0.7765305914257938 11.0116839679886329   F   F   F
  8.6878619697488606 10.7077912068179053  4.3261073008120503   F   F   F
  1.4669611892426841  9.1547300239663159 11.0116839679886329   F   F   F
  8.6929037660994766 19.0799933563939987  4.3131493969467298   F   F   F
 18.8417924791438161 19.0854453468880862  2.3600613771547252   F   F   F
 11.6217843482342271  9.1547300239663159  9.0450460335411140   F   F   F
 18.8426851287404027 10.7077912068179053  2.3594693663645319   F   F   F
 11.6217843482342271  0.7765305914257938  9.0450460335411140   F   F   F
  4.0843573639185831  1.3979692287630687  9.5406986308418436   F   F   F
  6.0704657950729608 11.3292298441551793  2.8551219636652609   F   F   F
  4.0843573639185831  8.5332913866290419  9.5406986308418436   F   F   F
  6.0715056331439063 18.4626406929247580  2.8542949602660839   F   F   F
 16.2254709296565238 18.4640686845772564  3.8307149108038998   F   F   F
 14.2391805229101269  8.5332913866290419 10.5160313706879034   F   F   F
 16.2252889540645029 11.3292298441551793  3.8304547035113221   F   F   F
 14.2391805229101269  1.3979692287630687 10.5160313706879034   F   F   F
  8.5869112722916050 16.4529504862651628  9.1416005635855822   F   F   F
  1.5763273773718030  6.5092533948319806  2.4761345411157811   F   F   F
  8.5905616118449206 13.3471196446966491  9.1485031994012243   F   F   F
  1.5763273773718030  3.4220072205601295  2.4761345411157811   F   F   F
 11.7311505363633461  3.4220072205601295  4.2094421260608010   F   F   F
 18.7395947579085949 13.3531876991289842 10.8968968458797413   F   F   F
 11.7311505363633461  6.5092533948319806  4.2094421260608010   F   F   F
 18.7355140470594996 16.4414776153820377 10.8989213978272304   F   F   F
  6.4408151298452285 17.3646302687949081 11.1529501987089628   F   F   F
  3.7180465794847750  7.4382500466046224  4.4764479790710539   F   F   F
  6.4438277041139571 12.4272691189132747 11.1559635742755390   F   F   F
  3.7180465794847750  2.4930105687874886  4.4764479790710539   F   F   F
 13.8728697384763198  2.4930105687874886  2.2091286881055288   F   F   F
 16.6008035824260105 12.4242877532791915  8.8951637139676976   F   F   F
 13.8728697384763198  7.4382500466046224  2.2091286881055288   F   F   F
 16.5980344421097392 17.3705093548937022  8.8950704514389098   F   F   F
  5.5465276829129220 16.4364370706850238  0.5299457910880623   F   F   F
  4.6170079927443011  6.5095434530137322  7.2176998349999728   F   F   F
  5.5463315061584151 13.3545303552655774  0.5290817947150205   F   F   F
  4.6170079927443011  3.4217171623783784  7.2176998349999728   F   F   F
 14.7718311517358440  3.4217171623783784 12.8390301665297759   F   F   F
 15.6969833646496397 13.3541072927827855  6.1544126461473558   F   F   F
 14.7718311517358440  6.5095434530137322 12.8390301665297759   F   F   F
 15.6966879558075902 16.4395528749266724  6.1530572212108625   F   F   F
  2.3834884266428968 16.4439554979859572  0.3153885322870464   F   F   F
  7.7766577971384301  6.5146392987053847  6.9908051240805120   F   F   F
  2.3856948874715029 13.3500947955931402  0.3101723069622457   F   F   F
  7.7766577971384301  3.4166213166867263  6.9908051240805120   F   F   F
 17.9314809561299739  3.4166213166867263 13.0659248774492358   F   F   F
 12.5375734154298701 13.3492195149504767  6.3681634072145590   F   F   F
 17.9314809561299739  6.5146392987053847 13.0659248774492358   F   F   F
 12.5353073068501129 16.4456289816436332  6.3651183408736696   F   F   F
  1.3936786052718868 17.4904360479244509 10.9106643721049714   F   F   F
  8.7665009375840501  7.5582981210348308  4.2126116944586931   F   F   F
  1.3968043436017814 12.3032410519772331 10.9074147894637576   F   F   F
  8.7665009375840501  2.3729624943572789  4.2126116944586931   F   F   F
 18.9213240965755958  2.3729624943572789  2.4729649727178891   F   F   F
 11.5620104082835340 12.3037788133985924  9.1453855974876532   F   F   F
 18.9213240965755958  7.5582981210348308  2.4729649727178891   F   F   F
 11.5573324942587554 17.4866224359677993  9.1457903608336224   F   F   F
  3.9585868262924038 16.4477700532735334  9.4006153517092255   F   F   F
  6.1940601493177123  6.5178291587723436  2.7207962266042216   F   F   F
  3.9647391053616494 13.3496494028288222  9.4003418065324027   F   F   F
  6.1940601493177123  3.4134314566197661  2.7207962266042216   F   F   F
 16.3488833083092580  3.4134314566197661  3.9647804405723610   F   F   F
 14.1244568719453074 13.3481837551137037 10.6536639498139092   F   F   F
 16.3488833083092580  6.5178291587723436  3.9647804405723610   F   F   F
 14.1247452826371642 16.4494914487043502 10.6542604419211351   F   F   F
  8.6001082243087499 14.9205718115764263  6.1421310485855738   F   F   F
   8.77889878  15.51208624   4.52907811                        T   T   T
    9.013363    14.35724223   4.54049599                       T   T   T
