 O Si Zr  H 
 1.0000000000000000
    20.3096463179830877    0.0000000000000000    0.0000000000000000
     0.0000000000000000   19.8625212307842212    0.0000000000000000
     0.0000000000000000    0.0000000000000000   13.3711533343531652
 O   Si  Zr  H  
 192  96   1   2
Selective dynamics
Cartesian
 10.2074441472539608  1.4455920571236711  9.4604249957828941   F   F   F
 20.2570253297206690 11.3768526725157813  2.7748483286063115   F   F   F
 10.2074441472539608  8.4856685582684399  9.4604249957828941   F   F   F
 20.2565258966777257 18.4167506090025412  2.7762281312343617   F   F   F
 10.1007045948962144 18.4136208533675898  3.9112338967308249   F   F   F
  0.0526209882624183  8.4856685582684399 10.5963050057468546   F   F   F
 10.1022021707291270 11.3768526725157813  3.9107283385702711   F   F   F
  0.0526209882624183  1.4455920571236711 10.5963050057468546   F   F   F
  7.8574470561008258  1.3782397496433998 10.6412964171056164   F   F   F
  2.2973761028907185 11.3095003650355110  3.9557197499290346   F   F   F
  7.8574470561008258  8.5530208657487101 10.6412964171056164   F   F   F
  2.2943723494279289 18.4897754863810633  3.9600886369095920   F   F   F
 12.4506195614722621 18.4860082052129933  2.7286305916890887   F   F   F
 18.0122702150923679  8.5530208657487101  9.4154335844241306   F   F   F
 12.4521992618822619 11.3095003650355110  2.7298569172475480   F   F   F
 18.0122702150923679  1.3782397496433998  9.4154335844241306   F   F   F
  8.1725947172854614  2.7725725698066146  8.4232488031646700   F   F   F
  1.9812952391419696 12.7037639782817227  1.7396413187435307   F   F   F
  8.1725947172854614  7.1586880455854951  8.4232488031646700   F   F   F
  1.9831926038104164 17.0888948537016248  1.7457144070082193   F   F   F
 12.1360379655518820 17.0891469214098919  4.9456148492052083   F   F   F
 18.3274178762770035  7.1586880455854951 11.6334811983650788   F   F   F
 12.1340685341518544 12.7051349803697580  4.9477020267223999   F   F   F
 18.3274178762770035  2.7725725698066146 11.6334811983650788   F   F   F
  8.2153166660147221  0.1029381220613197  8.3269034275119509   F   F   F
  1.9395064929768218 10.0341987374534298  1.6413267603352724   F   F   F
  8.2153166660147221  9.8283224933307913  8.3269034275119509   F   F   F
  1.9387381632975920 19.7588234365141133  1.6407293945525656   F   F   F
 12.0939671626829952 19.7574018285986313  5.0462987718474324   F   F   F
 18.3701398250062660  9.8283224933307913 11.7298265740177978   F   F   F
 12.0943296519683656 10.0341987374534298  5.0442499068413102   F   F   F
 18.3701398250062660  0.1029381220613197 11.7298265740177978   F   F   F
  6.5887154352565247  0.7852118051446575 12.8897032740910973   F   F   F
  3.5661077237350187 10.7164724205367676  6.2041266069144205   F   F   F
  6.5887154352565247  9.1460488102474535 12.8897032740910973   F   F   F
  3.5679599279494019 19.0811361625392095  6.2052735848348703   F   F   F
 13.7204075503495133 19.0777686876928314  0.4814649245592046   F   F   F
 16.7435385942480686  9.1460488102474535  7.1670267274386505   F   F   F
 13.7209308827265630 10.7164724205367676  0.4814500602620672   F   F   F
 16.7435385942480686  0.7852118051446575  7.1670267274386505   F   F   F
  6.5948387938713218 18.9448714057042267 10.8121534240999377   F   F   F
  3.5614151128380791  9.0137536510646292  4.1293696433153393   F   F   F
  6.5934080461534652 10.8487675797195919 10.8149463104919210   F   F   F
  3.5614151128380791  0.9175069643274809  4.1293696433153393   F   F   F
 13.7162382718296225  0.9175069643274809  2.5562070238612433   F   F   F
 16.7482312051450108 10.8487675797195919  9.2417836910378259   F   F   F
 13.7162382718296225  9.0137536510646292  2.5562070238612433   F   F   F
 16.7425870452228516 18.9457058975879775  9.2428921467235661   F   F   F
  5.1875978346380416  1.3228882597357992 10.7264487216491453   F   F   F
  4.9672253243535023 11.2541488751279086  4.0408720544725618   F   F   F
  5.1875978346380416  8.6083723556563125 10.7264487216491453   F   F   F
  4.9696301191806320 18.5461314062351796  4.0424615403739521   F   F   F
 15.1216325158260911 18.5394844729621227  2.6445497889399228   F   F   F
 15.3424209936295863  8.6083723556563125  9.3302812798806034   F   F   F
 15.1220484833450453 11.2541488751279086  2.6447046127040204   F   F   F
 15.3424209936295863  1.3228882597357992  9.3302812798806034   F   F   F
  5.9208478308271770  2.5261984263753923  1.3881965166552193   F   F   F
  4.2327883256936509 12.4509778143978238  8.0817772921395985   F   F   F
  5.9208478308271770  7.4050621890167188  1.3881965166552193   F   F   F
  4.2295303822930066 17.3396480892994056  8.0793581774157186   F   F   F
 14.3893136771172472 17.3392997502027768 11.9828872841670258   F   F   F
 16.0756709898187218  7.4050621890167188  5.2973801505213629   F   F   F
 14.3874586232158368 12.4577768356508880 11.9853092724550070   F   F   F
 16.0756709898187218  2.5261984263753923  5.2973801505213629   F   F   F
  4.0830782392452933  0.8506554447103878  0.3887956446629249   F   F   F
  6.0717449197462505 10.7819160601024979  7.0743723118395074   F   F   F
  4.0830782392452933  9.0806051706817232  0.3887956446629249   F   F   F
  6.0713505732045601 19.0121081048074991  7.0799871254479383   F   F   F
 16.2261493638748320 19.0175498405929666 12.9844180727453722   F   F   F
 14.2379013982368381  9.0806051706817232  6.2967810225136578   F   F   F
 16.2265680787377953 10.7819160601024979 12.9823576896902395   F   F   F
 14.2379013982368381  0.8506554447103878  6.2967810225136578   F   F   F
  6.0297217424147993 19.8199434320233259  1.9659273269971054   F   F   F
  4.1251014165767446  9.8886828166312153  8.6515039941735932   F   F   F
  6.0297217424147993  9.9738384141530059  1.9659273269971054   F   F   F
  4.1251014165767446  0.0425777987608954  8.6515039941735932   F   F   F
 14.2799245755682875  0.0425777987608954 11.4052260073561555   F   F   F
 16.1845449014063441  9.9738384141530059  4.7196493401794779   F   F   F
 14.2799245755682875  9.8886828166312153 11.4052260073561555   F   F   F
 16.1845449014063441 19.8199434320233259  4.7196493401794779   F   F   F
  2.2136347901559494  2.5175005587295871  1.2818583479620820   F   F   F
  7.9471314919882881 12.4589301563655841  7.9617354959115278   F   F   F
  2.2136347901559494  7.4137600566625226  1.2818583479620820   F   F   F
  7.9463669251607190 17.3375348821316599  7.9598062276542532   F   F   F
 18.0897249626239898 17.3457781914496181 12.0919675706379035   F   F   F
 12.3684579491474924  7.4137600566625226  5.4037183192145006   F   F   F
 18.0896753991907744 12.4502513114700761 12.0912607705738253   F   F   F
 12.3684579491474924  2.5175005587295871  5.4037183192145006   F   F   F
  1.6881962070130982  0.9207382679108781 12.6129474627524694   F   F   F
  8.4666269519784461 10.8519988833029899  5.9273707955758868   F   F   F
  1.6881962070130982  9.0105223474812313 12.6129474627524694   F   F   F
  8.4701035787208969 18.9425010751224434  5.9279672209315155   F   F   F
 18.6205637255193892 18.9413381932598242  0.7597942452135732   F   F   F
 11.8430193660046434  9.0105223474812313  7.4437825387772794   F   F   F
 18.6214501109699881 10.8519988833029899  0.7582058716006961   F   F   F
 11.8430193660046434  0.9207382679108781  7.4437825387772794   F   F   F
  2.6191221466297452  1.5772552032846385 10.2029786362431807   F   F   F
  7.5357010123617982 11.5085158186767487  3.5174019690665985   F   F   F
  2.6191221466297452  8.3540054121074725 10.2029786362431807   F   F   F
  7.5379340394702341 18.2840570236208393  3.5148657865654966   F   F   F
 17.6908744548117802 18.2848276927951758  3.1691623020884410   F   F   F
 12.7739453056212895  8.3540054121074725  9.8537513652865663   F   F   F
 17.6905241713533421 11.5085158186767487  3.1681746981099845   F   F   F
 12.7739453056212895  1.5772552032846385  9.8537513652865663   F   F   F
  1.4919866340482322 19.0743486585900186 10.5778897837863912   F   F   F
  8.6605141216446260  9.1427877065086367  3.8893856967007774   F   F   F
  1.4943090373469170 10.7197335242755862 10.5749623638772636   F   F   F
  8.6605141216446260  0.7884729088834742  3.8893856967007774   F   F   F
 18.8153372806361716  0.7884729088834742  2.7961909704758057   F   F   F
 11.6491321963384618 10.7197335242755862  9.4817676376524833   F   F   F
 18.8153372806361716  9.1427877065086367  2.7961909704758057   F   F   F
 11.6490397651365782 19.0725628920481256  9.4787554974231494   F   F   F
  4.3968316384186590  2.7045309019182375  8.6446672192582152   F   F   F
  5.7656622916202505 12.6338642849155303  1.9572766711361702   F   F   F
  4.3968316384186590  7.2267297134738726  8.6446672192582152   F   F   F
  5.7649099855674635 17.1609830623480093  1.9554949448849619   F   F   F
 15.9119024735461174 17.1569075200887191  4.7236890456335301   F   F   F
 14.5516547974102028  7.2267297134738726 11.4120627822715335   F   F   F
 15.9114118552168300 12.6362380062488295  4.7257397057661246   F   F   F
 14.5516547974102028  2.7045309019182375 11.4120627822715335   F   F   F
 10.0743178232607882 16.9409590027886097  9.5478109082977607   F   F   F
  0.0850379718339152  7.0141658028945288  2.8615498313442469   F   F   F
 10.0758563579489699 12.8509036707356348  9.5512462814240155   F   F   F
  0.0850379718339152  2.9170948124975822  2.8615498313442469   F   F   F
 10.2398611308254601  2.9170948124975822  3.8240268358323357   F   F   F
 20.2250770976756229 12.8489950061828502 10.5241379610144978   F   F   F
 10.2398611308254601  7.0141658028945288  3.8240268358323357   F   F   F
 20.2262549292813674 16.9446293398619510 10.5255209605884534   F   F   F
  7.6740443650969068 16.5483951434028747 10.5110178503215081   F   F   F
  2.4846705705810739  6.6155995192168131  3.8215753922960478   F   F   F
  7.6744264477341888 13.2444455328558401 10.5119793323767361   F   F   F
  2.4846705705810739  3.3156610961752970  3.8215753922960478   F   F   F
 12.6394937295726173  3.3156610961752970  2.8640012748805352   F   F   F
 17.8323581060421255 13.2420232895529395  9.5485118908561635   F   F   F
 12.6394937295726173  6.6155995192168131  2.8640012748805352   F   F   F
 17.8328815462678598 16.5545261071796261  9.5486982265335367   F   F   F
  8.6077901917640656 14.8962606618466218  8.6420786307701292   F   F   F
  1.5419329197154532  4.9656303076960553  1.9688022888379906   F   F   F
 11.6967560787069971  4.9656303076960553  4.7167743783385925   F   F   F
 18.7580216029185642 14.8978992189224382 11.4047293549622015   F   F   F
  6.4460103618053708 17.1776299800841095 12.7731001386265532   F   F   F
  3.7059346158871325  7.2425982351504699  6.0879969914885113   F   F   F
  6.4460248358666066 12.6171963906714328 12.7742892930077545   F   F   F
  3.7059346158871325  2.6886623802416403  6.0879969914885113   F   F   F
 13.8607577748786781  2.6886623802416403  0.5975796756880712   F   F   F
 16.6010896993010881 12.6182059792527586  7.2842146345216339   F   F   F
 13.8607577748786781  7.2425982351504699  0.5975796756880712   F   F   F
 16.6034536545155298 17.1772702340559356  7.2826949443310580   F   F   F
  5.0332492354754219 16.8165839026280999 10.5656298759825926   F   F   F
  5.1270102565117828  6.8928686523636049  3.8857134349154596   F   F   F
  5.0324455695760735 12.9757100061441655 10.5665706661830949   F   F   F
  5.1270102565117828  3.0383919630285057  3.8857134349154596   F   F   F
 15.2818334155033284  3.0383919630285057  2.7998632322611234   F   F   F
 15.1895137939360314 12.9772055136026268  9.4909830576473730   F   F   F
 15.2818334155033284  6.8928686523636049  2.7998632322611234   F   F   F
 15.1889746277516053 16.8157715785981097  9.4878150015809872   F   F   F
  6.0172292211739258 14.8978050367871049  0.6641993453302513   F   F   F
  4.1584246617385503  4.9656303076960553  7.3574447498228954   F   F   F
 14.3132478207300924  4.9656303076960553 12.6992852517067583   F   F   F
 16.1602768409317221 14.8969872697062140  6.0139513060080727   F   F   F
  3.9838190469321395 16.5266880934027718  0.0918000030437867   F   F   F
  6.1734543920290044  6.6085914233823377  6.7692293982920377   F   F   F
  3.9845127561723932 13.2694512231956043  0.0919397226396254   F   F   F
  6.1734543920290044  3.3226691920097720  6.7692293982920377   F   F   F
 16.3282775510205482  3.3226691920097720 13.2875006032377101   F   F   F
 14.1373674663126092 13.2627878909618797  6.5984823054617578   F   F   F
 16.3282775510205482  6.6085914233823377 13.2875006032377101   F   F   F
 14.1392934979630169 16.5324710788520797  6.5987663138103629   F   F   F
  1.8829679658321223 14.8975848133319122  0.2690397779897886   F   F   F
  8.2628481081252829  4.9656303076960553  6.9524502333987286   F   F   F
 18.4176712671168268  4.9656303076960553 13.1042797681310184   F   F   F
 12.0402870103111432 14.8977383541016177  6.4141883041418231   F   F   F
  1.6506259102383427 17.2792540304674915 12.5017224210953426   F   F   F
  8.5131568979229311  7.3415004446393679  5.8058209428476975   F   F   F
  1.6513595814180824 12.5162145846739374 12.4977815347244956   F   F   F
  8.5131568979229311  2.5897601707527422  5.8058209428476975   F   F   F
 18.6679800569143310  2.5897601707527422  0.8797557243288845   F   F   F
 11.7969023161142648 12.5260566380719336  7.5645587564743648   F   F   F
 18.6679800569143310  7.3415004446393679  0.8797557243288845   F   F   F
 11.7972590149031404 17.2684167161400026  7.5623785562182775   F   F   F
  2.4651349336900013 16.6859684191142499 10.0034447381403364   F   F   F
  7.6891086568283837  6.7513042184734262  3.3094339217652693   F   F   F
  2.4630472260059371 13.1076112616470635  9.9995840939380400   F   F   F
  7.6891086568283837  3.1799563969186848  3.3094339217652693   F   F   F
 17.8439318158197828  3.1799563969186848  3.3761427454113133   F   F   F
 12.6257819929808424 13.1111437608802959 10.0603481456652393   F   F   F
 17.8439318158197828  6.7513042184734262  3.3761427454113133   F   F   F
 12.6252417786005289 16.6821826359303671 10.0577686028460036   F   F   F
  4.1140059307287693 14.8954637631336784  8.9860035540424565   F   F   F
  6.0281749005281000  4.9656303076960553  2.2907179157230457   F   F   F
 16.1829980595196439  4.9656303076960553  4.3948587514535369   F   F   F
 14.2771497183775011 14.8983148154608678 11.0896955742486636   F   F   F
  8.6114921007489755  1.4146856099378582  9.1990931219956522   F   F   F
  1.5433310582425686 11.3459462253299677  2.5135164548190696   F   F   F
  8.6114921007489755  8.5165750054542517  9.1990931219956522   F   F   F
  1.5438996968647378 18.4480012900061006  2.5176370116911801   F   F   F
 11.6968793341777193 18.4487029380359395  4.1702253560763092   F   F   F
 18.7663152597405194  8.5165750054542517 10.8576368795340965   F   F   F
 11.6981542172341122 11.3459462253299677  4.1720602123575130   F   F   F
 18.7663152597405194  1.4146856099378582 10.8576368795340965   F   F   F
  6.5543253377466240  0.6425666935286518 11.2753241723876716   F   F   F
  3.6004978212449203 10.5738273089207624  4.5897475052110890   F   F   F
  6.5543253377466240  9.2886939218634588 11.2753241723876716   F   F   F
  3.6010459526556953 19.2198559224848218  4.5908004217019869   F   F   F
 13.7556403167075185 19.2209917627943199  2.0956542752725684   F   F   F
 16.7091484967381696  9.2886939218634588  8.7814058291420753   F   F   F
 13.7553209802364638 10.5738273089207624  2.0958291619654932   F   F   F
 16.7091484967381696  0.6425666935286518  8.7814058291420753   F   F   F
  5.6448362218964876  1.0320241432667694  0.8173882092636284   F   F   F
  4.5099869370950563 10.9632847586588795  7.5029648764402106   F   F   F
  5.6448362218964876  8.8992364721253416  0.8173882092636284   F   F   F
  4.5061397597010702 18.8283501171408751  7.5047242262212492   F   F   F
 14.6660813022374210 18.8333248435511926 12.5546261421102852   F   F   F
 15.7996593808880306  8.8992364721253416  5.8681884579129546   F   F   F
 14.6648100960866010 10.9632847586588795 12.5537651250895372   F   F   F
 15.7996593808880306  1.0320241432667694  5.8681884579129546   F   F   F
  2.4881439176978279  1.0483023193839807  0.6417355337127613   F   F   F
  7.6666792412937159 10.9795629347759487  7.3273122008893434   F   F   F
  2.4881439176978279  8.8829582960081304  0.6417355337127613   F   F   F
  7.6639933044953947 18.8174464935565950  7.3244570727690714   F   F   F
 17.8208182535613844 18.8158551357371167 12.7314565011942431   F   F   F
 12.6429670766893718  8.8829582960081304  6.0438411334638209   F   F   F
 17.8215024002852616 10.9795629347759487 12.7294178006404035   F   F   F
 12.6429670766893718  1.0483023193839807  6.0438411334638209   F   F   F
  1.4669611892426841  0.7765305914257938 11.0116839679886329   F   F   F
  8.6878619697488606 10.7077912068179053  4.3261073008120503   F   F   F
  1.4669611892426841  9.1547300239663159 11.0116839679886329   F   F   F
  8.6863371914511429 19.0859727467298299  4.3242540856999430   F   F   F
 18.8439110907122718 19.0853508961533009  2.3607848240663296   F   F   F
 11.6217843482342271  9.1547300239663159  9.0450460335411140   F   F   F
 18.8426851287404027 10.7077912068179053  2.3594693663645319   F   F   F
 11.6217843482342271  0.7765305914257938  9.0450460335411140   F   F   F
  4.0843573639185831  1.3979692287630687  9.5406986308418436   F   F   F
  6.0704657950729608 11.3292298441551793  2.8551219636652609   F   F   F
  4.0843573639185831  8.5332913866290419  9.5406986308418436   F   F   F
  6.0682467216661333 18.4622428970406673  2.8562707930794331   F   F   F
 16.2263459381816695 18.4648151925066806  3.8297851059095112   F   F   F
 14.2391805229101269  8.5332913866290419 10.5160313706879034   F   F   F
 16.2252889540645029 11.3292298441551793  3.8304547035113221   F   F   F
 14.2391805229101269  1.3979692287630687 10.5160313706879034   F   F   F
  8.5812121594580759 16.4444380248960087  9.1701729266112100   F   F   F
  1.5763273773718030  6.5092533948319806  2.4761345411157811   F   F   F
  8.5845084513957293 13.3499421261294930  9.1736244323478981   F   F   F
  1.5763273773718030  3.4220072205601295  2.4761345411157811   F   F   F
 11.7311505363633461  3.4220072205601295  4.2094421260608010   F   F   F
 18.7330046010563933 13.3540497785346908 10.8998959606549963   F   F   F
 11.7311505363633461  6.5092533948319806  4.2094421260608010   F   F   F
 18.7331447344949282 16.4420885540618471 10.9004469228537513   F   F   F
  6.4323840295875350 17.3704688853892328 11.1636136092447540   F   F   F
  3.7180465794847750  7.4382500466046224  4.4764479790710539   F   F   F
  6.4319309401959233 12.4236296616068636 11.1648543691923319   F   F   F
  3.7180465794847750  2.4930105687874886  4.4764479790710539   F   F   F
 13.8728697384763198  2.4930105687874886  2.2091286881055288   F   F   F
 16.5951083681252172 12.4246280035214287  8.8959689887274394   F   F   F
 13.8728697384763198  7.4382500466046224  2.2091286881055288   F   F   F
 16.5947179250435397 17.3699623763407018  8.8953306760401922   F   F   F
  5.5420746843140076 16.4374331569414203  0.5357266686383180   F   F   F
  4.6170079927443011  6.5095434530137322  7.2176998349999728   F   F   F
  5.5426800044100899 13.3580301720400012  0.5371936293661447   F   F   F
  4.6170079927443011  3.4217171623783784  7.2176998349999728   F   F   F
 14.7718311517358440  3.4217171623783784 12.8390301665297759   F   F   F
 15.6968303928112451 13.3543430269452124  6.1522699651791406   F   F   F
 14.7718311517358440  6.5095434530137322 12.8390301665297759   F   F   F
 15.6986918661313570 16.4403480116743950  6.1511852437487118   F   F   F
  2.3802184277826974 16.4430580782480824  0.3156342865294616   F   F   F
  7.7766577971384301  6.5146392987053847  6.9908051240805120   F   F   F
  2.3804158358240537 13.3524526987646404  0.3116836894725095   F   F   F
  7.7766577971384301  3.4166213166867263  6.9908051240805120   F   F   F
 17.9314809561299739  3.4166213166867263 13.0659248774492358   F   F   F
 12.5352230824139426 13.3511291003304571  6.3770278595231495   F   F   F
 17.9314809561299739  6.5146392987053847 13.0659248774492358   F   F   F
 12.5369224015548255 16.4444188134650453  6.3757390950975834   F   F   F
  1.3906562766743786 17.4913832297180818 10.9094952448693512   F   F   F
  8.7665009375840501  7.5582981210348308  4.2126116944586931   F   F   F
  1.3896771037303122 12.3023376258409520 10.9061227639864669   F   F   F
  8.7665009375840501  2.3729624943572789  4.2126116944586931   F   F   F
 18.9213240965755958  2.3729624943572789  2.4729649727178891   F   F   F
 11.5498744262149842 12.3036294398961967  9.1581998273138954   F   F   F
 18.9213240965755958  7.5582981210348308  2.4729649727178891   F   F   F
 11.5479764233516278 17.4888382264984159  9.1556259620276847   F   F   F
  3.9555894541929542 16.4468426485408976  9.4058930884114496   F   F   F
  6.1940601493177123  6.5178291587723436  2.7207962266042216   F   F   F
  3.9545793819357637 13.3442416331655593  9.4060269635524723   F   F   F
  6.1940601493177123  3.4134314566197661  2.7207962266042216   F   F   F
 16.3488833083092580  3.4134314566197661  3.9647804405723610   F   F   F
 14.1196465023862743 13.3474207371813272 10.6543014373516467   F   F   F
 16.3488833083092580  6.5178291587723436  3.9647804405723610   F   F   F
 14.1192604428459436 16.4490825378451824 10.6525353131695883   F   F   F
  6.5130003439660911 14.9006684591273046  5.7069585699110066   F   F   F
  4.6895296300000044 15.60290568999995 5.697053479999994 T  T  T
  4.687572280000004 14.397757750000002 5.071056499999959 T  T  T

