 O Si Zr  H 
 1.0000000000000000
    20.3096463179830877    0.0000000000000000    0.0000000000000000
     0.0000000000000000   19.8625212307842212    0.0000000000000000
     0.0000000000000000    0.0000000000000000   13.3711533343531652
 O Si Zr  H 
 192  96   1   2
Selective dynamics
Cartesian
 10.2074441472539608  1.4455920571236711  9.4604249957828941   F   F   F
 20.2570253297206690 11.3768526725157813  2.7748483286063115   F   F   F
 10.2074441472539608  8.4856685582684399  9.4604249957828941   F   F   F
 20.2592977331011959 18.4182975841837688  2.7812654595788677   T   T   T
 10.1047318691957919 18.4171460457453726  3.9130819174518461   T   T   T
  0.0526209882624183  8.4856685582684399 10.5963050057468546   F   F   F
 10.1022021707291270 11.3768526725157813  3.9107283385702711   F   F   F
  0.0526209882624183  1.4455920571236711 10.5963050057468546   F   F   F
  7.8574470561008258  1.3782397496433998 10.6412964171056164   F   F   F
  2.2973761028907185 11.3095003650355110  3.9557197499290346   F   F   F
  7.8574470561008258  8.5530208657487101 10.6412964171056164   F   F   F
  2.2977277260558200 18.4907769367490467  3.9649337983421331   T   T   T
 12.4520525780197158 18.4861666825711382  2.7266324377603062   T   T   T
 18.0122702150923679  8.5530208657487101  9.4154335844241306   F   F   F
 12.4521992618822619 11.3095003650355110  2.7298569172475480   F   F   F
 18.0122702150923679  1.3782397496433998  9.4154335844241306   F   F   F
  8.1725947172854614  2.7725725698066146  8.4232488031646700   F   F   F
  1.9848895283736172 12.7101843291622387  1.7505559458079931   T   T   T
  8.1725947172854614  7.1586880455854951  8.4232488031646700   F   F   F
  1.9865652801602385 17.0814217021493278  1.7601962561449516   T   T   T
 12.1434279050216976 17.0882054004763368  4.9413518381298172   T   T   T
 18.3274178762770035  7.1586880455854951 11.6334811983650788   F   F   F
 12.1469588177417727 12.7060308685345316  4.9404086793602042   T   T   T
 18.3274178762770035  2.7725725698066146 11.6334811983650788   F   F   F
  8.2153166660147221  0.1029381220613197  8.3269034275119509   F   F   F
  1.9395064929768218 10.0341987374534298  1.6413267603352724   F   F   F
  8.2153166660147221  9.8283224933307913  8.3269034275119509   F   F   F
  1.9403441936375230 19.7544112377865098  1.6383946801497240   T   T   T
 12.0992606845317177 19.7556120220499096  5.0468529029240106   T   T   T
 18.3701398250062660  9.8283224933307913 11.7298265740177978   F   F   F
 12.0943296519683656 10.0341987374534298  5.0442499068413102   F   F   F
 18.3701398250062660  0.1029381220613197 11.7298265740177978   F   F   F
  6.5887154352565247  0.7852118051446575 12.8897032740910973   F   F   F
  3.5661077237350187 10.7164724205367676  6.2041266069144205   F   F   F
  6.5887154352565247  9.1460488102474535 12.8897032740910973   F   F   F
  3.5750690755895835 19.0889661354020070  6.2059490621939162   T   T   T
 13.7243157581930770 19.0800147308321932  0.4805180158916818   T   T   T
 16.7435385942480686  9.1460488102474535  7.1670267274386505   F   F   F
 13.7209308827265630 10.7164724205367676  0.4814500602620672   F   F   F
 16.7435385942480686  0.7852118051446575  7.1670267274386505   F   F   F
  6.5938745685665126 18.9421320288019146 10.8125623244579003   T   T   T
  3.5614151128380791  9.0137536510646292  4.1293696433153393   F   F   F
  6.5934080461534652 10.8487675797195919 10.8149463104919210   F   F   F
  3.5614151128380791  0.9175069643274809  4.1293696433153393   F   F   F
 13.7162382718296225  0.9175069643274809  2.5562070238612433   F   F   F
 16.7482312051450108 10.8487675797195919  9.2417836910378259   F   F   F
 13.7162382718296225  9.0137536510646292  2.5562070238612433   F   F   F
 16.7427004785399411 18.9452943727590579  9.2426681178366614   T   T   T
  5.1875978346380416  1.3228882597357992 10.7264487216491453   F   F   F
  4.9672253243535023 11.2541488751279086  4.0408720544725618   F   F   F
  5.1875978346380416  8.6083723556563125 10.7264487216491453   F   F   F
  4.9738292443485124 18.5552297853914290  4.0415147334025212   T   T   T
 15.1229093270494044 18.5400698703095301  2.6439344133089389   T   T   T
 15.3424209936295863  8.6083723556563125  9.3302812798806034   F   F   F
 15.1220484833450453 11.2541488751279086  2.6447046127040204   F   F   F
 15.3424209936295863  1.3228882597357992  9.3302812798806034   F   F   F
  5.9208478308271770  2.5261984263753923  1.3881965166552193   F   F   F
  4.2176307158082045 12.4449802876632916  8.0878574848584233   T   T   T
  5.9208478308271770  7.4050621890167188  1.3881965166552193   F   F   F
  4.1976418957552575 17.3451047875306053  8.0830868956759403   T   T   T
 14.4248584685786092 17.3421640223368811 11.9899351003198689   T   T   T
 16.0756709898187218  7.4050621890167188  5.2973801505213629   F   F   F
 14.3973704859931413 12.4590101412831995 11.9874238965125599   T   T   T
 16.0756709898187218  2.5261984263753923  5.2973801505213629   F   F   F
  4.0830782392452933  0.8506554447103878  0.3887956446629249   F   F   F
  6.0717449197462505 10.7819160601024979  7.0743723118395074   F   F   F
  4.0830782392452933  9.0806051706817232  0.3887956446629249   F   F   F
  6.0763045116240537 19.0111410411099016  7.1191175229124619   T   T   T
 16.2353436437667895 19.0315561547351528 12.9933818728297190   T   T   T
 14.2379013982368381  9.0806051706817232  6.2967810225136578   F   F   F
 16.2265680787377953 10.7819160601024979 12.9823576896902395   F   F   F
 14.2379013982368381  0.8506554447103878  6.2967810225136578   F   F   F
  6.0297217424147993 19.8199434320233259  1.9659273269971054   F   F   F
  4.1251014165767446  9.8886828166312153  8.6515039941735932   F   F   F
  6.0297217424147993  9.9738384141530059  1.9659273269971054   F   F   F
  4.1251014165767446  0.0425777987608954  8.6515039941735932   F   F   F
 14.2799245755682875  0.0425777987608954 11.4052260073561555   F   F   F
 16.1845449014063441  9.9738384141530059  4.7196493401794779   F   F   F
 14.2799245755682875  9.8886828166312153 11.4052260073561555   F   F   F
 16.1845449014063441 19.8199434320233259  4.7196493401794779   F   F   F
  2.2136347901559494  2.5175005587295871  1.2818583479620820   F   F   F
  7.9838342412611318 12.4586719912963435  7.9827621582358583   T   T   T
  2.2136347901559494  7.4137600566625226  1.2818583479620820   F   F   F
  8.0043120559322318 17.3372836766959644  7.9712521983206912   T   T   T
 18.0876179894708642 17.3476328709342980 12.0790073028888365   T   T   T
 12.3684579491474924  7.4137600566625226  5.4037183192145006   F   F   F
 18.0986823039265978 12.4458497558952708 12.0811920957710122   T   T   T
 12.3684579491474924  2.5175005587295871  5.4037183192145006   F   F   F
  1.6881962070130982  0.9207382679108781 12.6129474627524694   F   F   F
  8.4666269519784461 10.8519988833029899  5.9273707955758868   F   F   F
  1.6881962070130982  9.0105223474812313 12.6129474627524694   F   F   F
  8.4690526442354432 18.9547894602309661  5.9242203551094770   T   T   T
 18.6312615207376346 18.9329923566594758  0.7577648273950278   T   T   T
 11.8430193660046434  9.0105223474812313  7.4437825387772794   F   F   F
 18.6214501109699881 10.8519988833029899  0.7582058716006961   F   F   F
 11.8430193660046434  0.9207382679108781  7.4437825387772794   F   F   F
  2.6191221466297452  1.5772552032846385 10.2029786362431807   F   F   F
  7.5357010123617982 11.5085158186767487  3.5174019690665985   F   F   F
  2.6191221466297452  8.3540054121074725 10.2029786362431807   F   F   F
  7.5499265180070010 18.2927091324192581  3.4865513249458004   T   T   T
 17.6914965943741365 18.2863018093201184  3.1657743969622150   T   T   T
 12.7739453056212895  8.3540054121074725  9.8537513652865663   F   F   F
 17.6905241713533421 11.5085158186767487  3.1681746981099845   F   F   F
 12.7739453056212895  1.5772552032846385  9.8537513652865663   F   F   F
  1.4940941238021523 19.0729873414520767 10.5801346210560148   T   T   T
  8.6605141216446260  9.1427877065086367  3.8893856967007774   F   F   F
  1.4943090373469170 10.7197335242755862 10.5749623638772636   F   F   F
  8.6605141216446260  0.7884729088834742  3.8893856967007774   F   F   F
 18.8153372806361716  0.7884729088834742  2.7961909704758057   F   F   F
 11.6491321963384618 10.7197335242755862  9.4817676376524833   F   F   F
 18.8153372806361716  9.1427877065086367  2.7961909704758057   F   F   F
 11.6175149216841760 19.0676973471755389  9.4801502730485403   T   T   T
  4.3968316384186590  2.7045309019182375  8.6446672192582152   F   F   F
  5.7509954287909846 12.6333897869807732  1.9583172912900915   T   T   T
  4.3968316384186590  7.2267297134738726  8.6446672192582152   F   F   F
  5.7433604373619316 17.1581367106597611  1.9637468331713503   T   T   T
 15.9160851077123091 17.1555936215555604  4.7205407870102665   T   T   T
 14.5516547974102028  7.2267297134738726 11.4120627822715335   F   F   F
 15.9124769586529577 12.6373176929391562  4.7242626994870776   T   T   T
 14.5516547974102028  2.7045309019182375 11.4120627822715335   F   F   F
 10.1329303209408472 16.8476417740118158  9.5550294127431989   T   T   T
  0.0850379718339152  7.0141658028945288  2.8615498313442469   F   F   F
 10.1296871665369554 12.9255977646445395  9.5472645437579118   T   T   T
  0.0850379718339152  2.9170948124975822  2.8615498313442469   F   F   F
 10.2398611308254601  2.9170948124975822  3.8240268358323357   F   F   F
 20.2503775703158162 12.8655799572027405 10.5272314549232107   T   T   T
 10.2398611308254601  7.0141658028945288  3.8240268358323357   F   F   F
 20.2436218291186769 16.9342106898434075 10.5305175751297906   T   T   T
  7.7260579974622603 16.5714304269788357 10.5552944606526236   T   T   T
  2.4846705705810739  6.6155995192168131  3.8215753922960478   F   F   F
  7.7328074148586756 13.2214043243494679 10.5626143758050848   T   T   T
  2.4846705705810739  3.3156610961752970  3.8215753922960478   F   F   F
 12.6394937295726173  3.3156610961752970  2.8640012748805352   F   F   F
 17.8692403332411764 13.2293374114163544  9.5312934148469388   T   T   T
 12.6394937295726173  6.6155995192168131  2.8640012748805352   F   F   F
 17.8648353499246006 16.5630388579893371  9.5295584193727692   T   T   T
  8.5123479124569865 14.8958414810680946  8.6206505919365970   T   T   T
  1.5419329197154532  4.9656303076960553  1.9688022888379906   F   F   F
 11.6967560787069971  4.9656303076960553  4.7167743783385925   F   F   F
 18.7535881261662034 14.8974551282146983 11.3977242416574267   T   T   T
  6.4383671477816975 17.1806374791588148 12.7823755700107817   T   T   T
  3.7059346158871325  7.2425982351504699  6.0879969914885113   F   F   F
  6.4436678756191510 12.6121032484790554 12.7833362784798794   T   T   T
  3.7059346158871325  2.6886623802416403  6.0879969914885113   F   F   F
 13.8607577748786781  2.6886623802416403  0.5975796756880712   F   F   F
 16.6079388620096147 12.6147012620750338  7.2802856991217828   T   T   T
 13.8607577748786781  7.2425982351504699  0.5975796756880712   F   F   F
 16.6081642553439224 17.1812922151638858  7.2766301809725400   T   T   T
  5.0798340070019989 16.7785151054996717 10.5404632430924323   T   T   T
  5.1270102565117828  6.8928686523636049  3.8857134349154596   F   F   F
  5.0861408447422169 13.0198441843714274 10.5439661795918909   T   T   T
  5.1270102565117828  3.0383919630285057  3.8857134349154596   F   F   F
 15.2818334155033284  3.0383919630285057  2.7998632322611234   F   F   F
 15.2278539170298792 13.0011933452637312  9.5016012842733488   T   T   T
 15.2818334155033284  6.8928686523636049  2.7998632322611234   F   F   F
 15.2231788044803373 16.7937127500574306  9.4935749547663644   T   T   T
  6.0054069587637802 14.8977533220093523  0.6623424925015454   T   T   T
  4.1584246617385503  4.9656303076960553  7.3574447498228954   F   F   F
 14.3132478207300924  4.9656303076960553 12.6992852517067583   F   F   F
 16.1724304894470272 14.8967930190340141  6.0151444779449994   T   T   T
  3.9754706935258692 16.5274728070336394  0.0850447311692186   T   T   T
  6.1734543920290044  6.6085914233823377  6.7692293982920377   F   F   F
  3.9793805758808749 13.2672883096697767  0.0824862274081176   T   T   T
  6.1734543920290044  3.3226691920097720  6.7692293982920377   F   F   F
 16.3282775510205482  3.3226691920097720 13.2875006032377101   F   F   F
 14.1440251318991308 13.2705366894699228  6.5986645375441837   T   T   T
 16.3282775510205482  6.6085914233823377 13.2875006032377101   F   F   F
 14.1444596025365215 16.5229087690742453  6.5923476174806384   T   T   T
  1.8790981487093452 14.8963941681428462  0.2669202181847453   T   T   T
  8.2628481081252829  4.9656303076960553  6.9524502333987286   F   F   F
 18.4176712671168268  4.9656303076960553 13.1042797681310184   F   F   F
 12.0401459103348092 14.8961955282579801  6.4243512209729134   T   T   T
  1.6351924358062733 17.2930976536525094 12.5244609288519708   T   T   T
  8.5131568979229311  7.3415004446393679  5.8058209428476975   F   F   F
  1.6420243119959961 12.4997810369467537 12.5178323680610220   T   T   T
  8.5131568979229311  2.5897601707527422  5.8058209428476975   F   F   F
 18.6679800569143310  2.5897601707527422  0.8797557243288845   F   F   F
 11.8137646994853114 12.5104450971903223  7.5547990460343373   T   T   T
 18.6679800569143310  7.3415004446393679  0.8797557243288845   F   F   F
 11.8180991313315165 17.2750730533741290  7.5622092116086312   T   T   T
  2.4958765996222119 16.6820486604604845 10.0536394830929865   T   T   T
  7.6891086568283837  6.7513042184734262  3.3094339217652693   F   F   F
  2.5024465966060467 13.1070177016336178 10.0474902092848541   T   T   T
  7.6891086568283837  3.1799563969186848  3.3094339217652693   F   F   F
 17.8439318158197828  3.1799563969186848  3.3761427454113133   F   F   F
 12.6643257993723601 13.1059478552838282 10.0459630115521676   T   T   T
 17.8439318158197828  6.7513042184734262  3.3761427454113133   F   F   F
 12.6661818403848265 16.7030938483878870 10.0634557380978826   T   T   T
  4.0918511512629578 14.8967169143036884  8.9510343614917485   T   T   T
  6.0281749005281000  4.9656303076960553  2.2907179157230457   F   F   F
 16.1829980595196439  4.9656303076960553  4.3948587514535369   F   F   F
 14.2877928916227575 14.9009275247118200 11.1081180433066464   T   T   T
  8.6114921007489755  1.4146856099378582  9.1990931219956522   F   F   F
  1.5433310582425686 11.3459462253299677  2.5135164548190696   F   F   F
  8.6114921007489755  8.5165750054542517  9.1990931219956522   F   F   F
  1.5471964110229051 18.4480706764401425  2.5232095797213177   T   T   T
 11.6976357064287235 18.4483347477544655  4.1689305050277436   T   T   T
 18.7663152597405194  8.5165750054542517 10.8576368795340965   F   F   F
 11.6981542172341122 11.3459462253299677  4.1720602123575130   F   F   F
 18.7663152597405194  1.4146856099378582 10.8576368795340965   F   F   F
  6.5543253377466240  0.6425666935286518 11.2753241723876716   F   F   F
  3.6004978212449203 10.5738273089207624  4.5897475052110890   F   F   F
  6.5543253377466240  9.2886939218634588 11.2753241723876716   F   F   F
  3.6078803532983019 19.2215415377964689  4.5918976991064637   T   T   T
 13.7565088900505579 19.2212302624951583  2.0957826638963586   T   T   T
 16.7091484967381696  9.2886939218634588  8.7814058291420753   F   F   F
 13.7553209802364638 10.5738273089207624  2.0958291619654932   F   F   F
 16.7091484967381696  0.6425666935286518  8.7814058291420753   F   F   F
  5.6448362218964876  1.0320241432667694  0.8173882092636284   F   F   F
  4.5099869370950563 10.9632847586588795  7.5029648764402106   F   F   F
  5.6448362218964876  8.8992364721253416  0.8173882092636284   F   F   F
  4.5061584990228738 18.8259641298437010  7.5064896897033275   T   T   T
 14.6780607656863555 18.8411571175425863 12.5593396958600341   T   T   T
 15.7996593808880306  8.8992364721253416  5.8681884579129546   F   F   F
 14.6648100960866010 10.9632847586588795 12.5537651250895372   F   F   F
 15.7996593808880306  1.0320241432667694  5.8681884579129546   F   F   F
  2.4881439176978279  1.0483023193839807  0.6417355337127613   F   F   F
  7.6666792412937159 10.9795629347759487  7.3273122008893434   F   F   F
  2.4881439176978279  8.8829582960081304  0.6417355337127613   F   F   F
  7.6679395293671719 18.8176667146613319  7.3152482631933040   T   T   T
 17.8268728218803538 18.8146383908414840 12.7312361465439370   T   T   T
 12.6429670766893718  8.8829582960081304  6.0438411334638209   F   F   F
 17.8215024002852616 10.9795629347759487 12.7294178006404035   F   F   F
 12.6429670766893718  1.0483023193839807  6.0438411334638209   F   F   F
  1.4669611892426841  0.7765305914257938 11.0116839679886329   F   F   F
  8.6878619697488606 10.7077912068179053  4.3261073008120503   F   F   F
  1.4669611892426841  9.1547300239663159 11.0116839679886329   F   F   F
  8.6847295302629561 19.0816858072038258  4.3178716480860384   T   T   T
 18.8471846702596650 19.0852133050122248  2.3599469222821283   T   T   T
 11.6217843482342271  9.1547300239663159  9.0450460335411140   F   F   F
 18.8426851287404027 10.7077912068179053  2.3594693663645319   F   F   F
 11.6217843482342271  0.7765305914257938  9.0450460335411140   F   F   F
  4.0843573639185831  1.3979692287630687  9.5406986308418436   F   F   F
  6.0704657950729608 11.3292298441551793  2.8551219636652609   F   F   F
  4.0843573639185831  8.5332913866290419  9.5406986308418436   F   F   F
  6.0718022884802751 18.4612721720249304  2.8590571869667256   T   T   T
 16.2278227239597896 18.4655400742839397  3.8284147297596722   T   T   T
 14.2391805229101269  8.5332913866290419 10.5160313706879034   F   F   F
 16.2252889540645029 11.3292298441551793  3.8304547035113221   F   F   F
 14.2391805229101269  1.3979692287630687 10.5160313706879034   F   F   F
  8.6093825279102258 16.4712472214514847  9.2103974757912201   T   T   T
  1.5763273773718030  6.5092533948319806  2.4761345411157811   F   F   F
  8.6085860165395580 13.3223778619693860  9.2132897415079036   T   T   T
  1.5763273773718030  3.4220072205601295  2.4761345411157811   F   F   F
 11.7311505363633461  3.4220072205601295  4.2094421260608010   F   F   F
 18.7505327179197216 13.3518543823545670 10.8946580175334340   T   T   T
 11.7311505363633461  6.5092533948319806  4.2094421260608010   F   F   F
 18.7447205543132647 16.4425875124675507 10.8940565793062305   T   T   T
  6.4421931127866099 17.3714394275563109 11.1755676044512118   T   T   T
  3.7180465794847750  7.4382500466046224  4.4764479790710539   F   F   F
  6.4465059042170880 12.4215603789550624 11.1775366258868605   T   T   T
  3.7180465794847750  2.4930105687874886  4.4764479790710539   F   F   F
 13.8728697384763198  2.4930105687874886  2.2091286881055288   F   F   F
 16.6173215427077992 12.4253013431040493  8.8923442077942738   T   T   T
 13.8728697384763198  7.4382500466046224  2.2091286881055288   F   F   F
 16.6148133700107330 17.3691076143730996  8.8888273688425503   T   T   T
  5.5304727849062205 16.4383146305877546  0.5430691429834450   T   T   T
  4.6170079927443011  6.5095434530137322  7.2176998349999728   F   F   F
  5.5346255558323270 13.3560603522373729  0.5413362833504993   T   T   T
  4.6170079927443011  3.4217171623783784  7.2176998349999728   F   F   F
 14.7718311517358440  3.4217171623783784 12.8390301665297759   F   F   F
 15.7035403796965127 13.3556468244329345  6.1512211026562600   T   T   T
 14.7718311517358440  6.5095434530137322 12.8390301665297759   F   F   F
 15.7042816323894066 16.4386607544183221  6.1476179695139423   T   T   T
  2.3730618358489948 16.4433633840915938  0.3232452214345055   T   T   T
  7.7766577971384301  6.5146392987053847  6.9908051240805120   F   F   F
  2.3767125743166266 13.3503010055625992  0.3173364000998654   T   T   T
  7.7766577971384301  3.4166213166867263  6.9908051240805120   F   F   F
 17.9314809561299739  3.4166213166867263 13.0659248774492358   F   F   F
 12.5415154466407888 13.3519669268139012  6.3687998759632256   T   T   T
 17.9314809561299739  6.5146392987053847 13.0659248774492358   F   F   F
 12.5412385500714123 16.4411059943390256  6.3686953976206526   T   T   T
  1.3998589101048979 17.4931301243064929 10.9263512278729920   T   T   T
  8.7665009375840501  7.5582981210348308  4.2126116944586931   F   F   F
  1.4047607232686423 12.3001324913564964 10.9207599870767620   T   T   T
  8.7665009375840501  2.3729624943572789  4.2126116944586931   F   F   F
 18.9213240965755958  2.3729624943572789  2.4729649727178891   F   F   F
 11.5846360895538201 12.3053141889742736  9.1493574893746743   T   T   T
 18.9213240965755958  7.5582981210348308  2.4729649727178891   F   F   F
 11.5806863919904171 17.4821938499782306  9.1556022090436908   T   T   T
  3.9640905733516330 16.4423614263511340  9.4047517861614285   T   T   T
  6.1940601493177123  6.5178291587723436  2.7207962266042216   F   F   F
  3.9721453642996032 13.3504606189974346  9.4044259000231936   T   T   T
  6.1940601493177123  3.4134314566197661  2.7207962266042216   F   F   F
 16.3488833083092580  3.4134314566197661  3.9647804405723610   F   F   F
 14.1486543748219127 13.3537790572301809 10.6584615429372036   T   T   T
 16.3488833083092580  6.5178291587723436  3.9647804405723610   F   F   F
 14.1541945493128871 16.4508338128207043 10.6630980238305266   T   T   T
  7.2654010212806988 14.9121854153469791  6.6139622056715712   T   T   T
  6.4497730669402911 13.4759664059015343  5.6985892534999980   T   T   T
  6.4811174331175190 16.3705778667894606  5.7018152343987785   T   T   T
