 O Si Ru  C  O                          
   1.00000000000000     
    20.3096463179830877    0.0000000000000000    0.0000000000000000
     0.0000000000000000   19.8625212307842212    0.0000000000000000
     0.0000000000000000    0.0000000000000000   13.3711533343531652
   O    Si   Ru   C    O 
   192    96     1     1     2
Selective dynamics
Direct
  0.5025909357277101  0.0727798873228238  0.7075249800237629   F   F   F
  0.9974090642722899  0.5727798873228238  0.2075249800237629   F   F   F
  0.5025909357277101  0.4272201126771762  0.7075249800237629   F   F   F
  0.9973555087511203  0.9271542188253727  0.2075402189956847   T   T   T
  0.4977351569503128  0.9279623613838576  0.2921757249598868   T   T   T
  0.0025909357277101  0.4272201126771762  0.7924750199762371   F   F   F
  0.4974090642722899  0.5727798873228238  0.2924750199762371   F   F   F
  0.0025909357277101  0.0727798873228238  0.7924750199762371   F   F   F
  0.3868825154844515  0.0693889629433002  0.7958398315398867   F   F   F
  0.1131174845155485  0.5693889629433002  0.2958398315398867   F   F   F
  0.3868825154844515  0.4306110370566998  0.7958398315398867   F   F   F
  0.1129033303441330  0.9309050410554456  0.2961863334269884   T   T   T
  0.6132740453739720  0.9306294123408649  0.2039782882512877   T   T   T
  0.8868825154844515  0.4306110370566998  0.7041601684601133   F   F   F
  0.6131174845155485  0.5693889629433002  0.2041601684601133   F   F   F
  0.8868825154844515  0.0693889629433002  0.7041601684601133   F   F   F
  0.4023996572529711  0.1395881488352799  0.6299567877606833   F   F   F
  0.0976870412856579  0.6396579020826916  0.1302179324149487   T   T   T
  0.4023996572529711  0.3604118511647201  0.6299567877606833   F   F   F
  0.0977726546856411  0.8603088638749791  0.1306492064509672   T   T   T
  0.5986534894645404  0.8607428080457294  0.3699271370409095   T   T   T
  0.9023996572529711  0.3604118511647201  0.8700432122393167   F   F   F
  0.5981407433467625  0.6395035883312025  0.3698345633982155   T   T   T
  0.9023996572529711  0.1395881488352799  0.8700432122393167   F   F   F
  0.4045031871746829  0.0051825304987858  0.6227513228883907   F   F   F
  0.0954968128253171  0.5051825304987858  0.1227513228883836   F   F   F
  0.4045031871746829  0.4948174695012142  0.6227513228883907   F   F   F
  0.0954770416430624  0.9947358185011406  0.1226522574657547   T   T   T
  0.5957199955040156  0.9947305027498669  0.3773519912871501   T   T   T
  0.9045031871746829  0.4948174695012142  0.8772486771116093   F   F   F
  0.5954968128253171  0.5051825304987858  0.3772486771116164   F   F   F
  0.9045031871746829  0.0051825304987858  0.8772486771116093   F   F   F
  0.3244131055804047  0.0395323330820503  0.9639933782656485   F   F   F
  0.1755868944195953  0.5395323330820503  0.4639933782656414   F   F   F
  0.3244131055804047  0.4604676669179497  0.9639933782656485   F   F   F
  0.1757147377933529  0.9607258582018225  0.4639984412378842   T   T   T
  0.6755837375465483  0.9606328044459733  0.0359668212924714   T   T   T
  0.8244131055804047  0.4604676669179497  0.5360066217343515   F   F   F
  0.6755868944195953  0.5395323330820503  0.0360066217343515   F   F   F
  0.8244131055804047  0.0395323330820503  0.5360066217343515   F   F   F
  0.3251903821085060  0.9536209143512115  0.8086290882882595   T   T   T
  0.1753558411149996  0.4538071248021893  0.3088267361878323   F   F   F
  0.3246441588850004  0.5461928751978107  0.8088267361878323   F   F   F
  0.1753558411149996  0.0461928751978107  0.3088267361878323   F   F   F
  0.6753558411149996  0.0461928751978107  0.1911732638121677   F   F   F
  0.8246441588850004  0.5461928751978107  0.6911732638121677   F   F   F
  0.6753558411149996  0.4538071248021893  0.1911732638121677   F   F   F
  0.8244663330571199  0.9538710849613675  0.6914011571877793   T   T   T
  0.2554253162963604  0.0666022326352760  0.8022081905298890   F   F   F
  0.2445746837036396  0.5666022326352760  0.3022081905298890   F   F   F
  0.2554253162963604  0.4333977673647240  0.8022081905298890   F   F   F
  0.2445705144417965  0.9334462629604152  0.3022286087279496   T   T   T
  0.7447866794889157  0.9335183611363480  0.1974588203293055   T   T   T
  0.7554253162963604  0.4333977673647240  0.6977918094701110   F   F   F
  0.7445746837036396  0.5666022326352760  0.1977918094701110   F   F   F
  0.7554253162963604  0.0666022326352760  0.6977918094701110   F   F   F
  0.2915288497951138  0.1271841775282851  0.1038202525947156   F   F   F
  0.2085987350868430  0.6270510107391941  0.6040791884774003   T   T   T
  0.2915288497951138  0.3728158224717149  0.1038202525947156   F   F   F
  0.2080946511294225  0.8728880268116688  0.6038253798433830   T   T   T
  0.7088086756729386  0.8730073436929691  0.8963053737565657   T   T   T
  0.7915288497951138  0.3728158224717149  0.3961797474052844   F   F   F
  0.7085984093431477  0.6272118094512823  0.8963176379591983   T   T   T
  0.7915288497951138  0.1271841775282851  0.3961797474052844   F   F   F
  0.2010413266345239  0.0428271635220199  0.0290771958813778   F   F   F
  0.2989586733654761  0.5428271635220199  0.5290771958813778   F   F   F
  0.2010413266345239  0.4571728364779801  0.0290771958813778   F   F   F
  0.2989873040861480  0.9566342188958508  0.5295094191677155   T   T   T
  0.7989917289142386  0.9576206309013007  0.9711161328414469   T   T   T
  0.7010413266345239  0.4571728364779801  0.4709228041186222   F   F   F
  0.7989586733654761  0.5428271635220199  0.9709228041186222   F   F   F
  0.7010413266345239  0.0428271635220199  0.4709228041186222   F   F   F
  0.2968895493308423  0.9978563749150382  0.1470275059927886   F   F   F
  0.2031104506691577  0.4978563749150382  0.6470275059927815   F   F   F
  0.2968895493308423  0.5021436250849618  0.1470275059927886   F   F   F
  0.2031104506691577  0.0021436250849618  0.6470275059927815   F   F   F
  0.7031104506691577  0.0021436250849618  0.8529724940072185   F   F   F
  0.7968895493308423  0.5021436250849618  0.3529724940072114   F   F   F
  0.7031104506691577  0.4978563749150382  0.8529724940072185   F   F   F
  0.7968895493308423  0.9978563749150382  0.3529724940072114   F   F   F
  0.1089942560051327  0.1267462740242564  0.0958674480733634   F   F   F
  0.3914394439164108  0.6260612226573715  0.5977827396597022   T   T   T
  0.1089942560051327  0.3732537259757436  0.0958674480733634   F   F   F
  0.3921395299349860  0.8739446838262668  0.5967661563549779   T   T   T
  0.8906156279241989  0.8732966400124296  0.9041275153284347   T   T   T
  0.6089942560051327  0.3732537259757436  0.4041325519266366   F   F   F
  0.8910160925968633  0.6266867697812001  0.9039352250439365   T   T   T
  0.6089942560051327  0.1267462740242564  0.4041325519266366   F   F   F
  0.0831228757301545  0.0463555586530404  0.9432954022258713   F   F   F
  0.4168771242698455  0.5463555586530404  0.4432954022258713   F   F   F
  0.0831228757301545  0.4536444413469596  0.9432954022258713   F   F   F
  0.4169876739346620  0.9533712902178874  0.4430891920453967   T   T   T
  0.9167273452105690  0.9534556223885151  0.0569729938478207   T   T   T
  0.5831228757301545  0.4536444413469596  0.5567045977741287   F   F   F
  0.9168771242698455  0.5463555586530404  0.0567045977741287   F   F   F
  0.5831228757301545  0.0463555586530404  0.5567045977741287   F   F   F
  0.1289595153762306  0.0794086100630622  0.7630589808606629   F   F   F
  0.3710404846237694  0.5794086100630622  0.2630589808606629   F   F   F
  0.1289595153762306  0.4205913899369378  0.7630589808606629   F   F   F
  0.3709896530085348  0.9207794789725666  0.2629218841692232   T   T   T
  0.8710753280223551  0.9204711617283752  0.2374868945537517   T   T   T
  0.6289595153762306  0.4205913899369378  0.7369410191393371   F   F   F
  0.8710404846237694  0.5794086100630622  0.2369410191393371   F   F   F
  0.6289595153762306  0.0794086100630622  0.7369410191393371   F   F   F
  0.0736820166807791  0.9602772423987270  0.7910388118187166   T   T   T
  0.4264236799621770  0.4603034831418356  0.2908788493740602   F   F   F
  0.0735763200378230  0.5396965168581644  0.7908788493740531   F   F   F
  0.4264236799621770  0.0396965168581644  0.2908788493740602   F   F   F
  0.9264236799621770  0.0396965168581644  0.2091211506259398   F   F   F
  0.5735763200378230  0.5396965168581644  0.7091211506259469   F   F   F
  0.9264236799621770  0.4603034831418356  0.2091211506259398   F   F   F
  0.5723807510511418  0.9600320118037626  0.7087908010703150   T   T   T
  0.2164898181671191  0.1361625178643777  0.6465161981987251   F   F   F
  0.2834866385073878  0.6359203451620677  0.1462048980102874   T   T   T
  0.2164898181671191  0.3638374821356223  0.6465161981987251   F   F   F
  0.2834957943533404  0.8638998381777786  0.1465053575760849   T   T   T
  0.7828794034273169  0.8639498805639443  0.3536264655666524   T   T   T
  0.7164898181671191  0.3638374821356223  0.8534838018012749   F   F   F
  0.7835095339566730  0.6361965588161957  0.3534655657086748   T   T   T
  0.7164898181671191  0.1361625178643777  0.8534838018012749   F   F   F
  0.4968049225913489  0.8503551242921078  0.7143094445284945   T   T   T
  0.0041870730047435  0.3531357233755159  0.2140092002379745   F   F   F
  0.4971709142015993  0.6492939463298839  0.7131434061328171   T   T   T
  0.0041870730047435  0.1468642766244841  0.2140092002379745   F   F   F
  0.5041870730047435  0.1468642766244841  0.2859907997620255   F   F   F
  0.9963779548793551  0.6473055112915811  0.7868552643882225   T   T   T
  0.5041870730047435  0.3531357233755159  0.2859907997620255   F   F   F
  0.9960541781160258  0.8530240664629010  0.7873312365350569   T   T   T
  0.3776659304817728  0.8321306074952834  0.7859814361859303   T   T   T
  0.1223394308142645  0.3330694750354013  0.2858074615356969   F   F   F
  0.3786638959068299  0.6674630041214551  0.7867170697869899   T   T   T
  0.1223394308142645  0.1669305249645987  0.2858074615356969   F   F   F
  0.6223394308142645  0.1669305249645987  0.2141925384643031   F   F   F
  0.8785703830090797  0.6665025052011668  0.7136853921590691   T   T   T
  0.6223394308142645  0.3330694750354013  0.2141925384643031   F   F   F
  0.8784246202525219  0.8335111405091243  0.7138057236484080   T   T   T
  0.4222030054234420  0.7500039990144505  0.6418710287820123   T   T   T
  0.0759212098317121  0.2500000000000000  0.1472425182485750   F   F   F
  0.5759212098317121  0.2500000000000000  0.3527574817514250   F   F   F
  0.9236211611095305  0.7500002479375465  0.8528143557629885   T   T   T
  0.3174905288736692  0.8646459053091829  0.9552127925367624   T   T   T
  0.1824716471111429  0.3646363999312143  0.4553082923555465   F   F   F
  0.3176679596112616  0.6352995300851930  0.9551939640948475   T   T   T
  0.1824716471111429  0.1353636000687857  0.4553082923555465   F   F   F
  0.6824716471111429  0.1353636000687857  0.0446917076444535   F   F   F
  0.8174664480528491  0.6352699348532934  0.5446816510327436   T   T   T
  0.6824716471111429  0.3646363999312143  0.0446917076444535   F   F   F
  0.8174508931621326  0.8649255469671808  0.5447036576128828   T   T   T
  0.2479052807053714  0.8467692536237121  0.7898435739606581   T   T   T
  0.2524421241138057  0.3470288878372898  0.2906042087582890   F   F   F
  0.2487317902313511  0.6539593841447752  0.7895646236707612   T   T   T
  0.2524421241138057  0.1529711121627102  0.2906042087582890   F   F   F
  0.7524421241138057  0.1529711121627102  0.2093957912417110   F   F   F
  0.7484358913368727  0.6536809659678984  0.7099912623563399   T   T   T
  0.7524421241138057  0.3470288878372898  0.2093957912417110   F   F   F
  0.7483006574643023  0.8464350986590494  0.7098391826556855   T   T   T
  0.2959966599770714  0.7499436406306484  0.0496555975013511   T   T   T
  0.2047512101703362  0.2500000000000000  0.5502475789369754   F   F   F
  0.7047512101703362  0.2500000000000000  0.9497524210630175   F   F   F
  0.7960789520353815  0.7501280959110322  0.4497534145620857   T   T   T
  0.1962674442856331  0.8322185213539131  0.0066749715696422   T   T   T
  0.3039666124841744  0.3327166449111161  0.5062562090960796   F   F   F
  0.1962856334646521  0.6678104402334886  0.0062899249439900   T   T   T
  0.3039666124841744  0.1672833550888839  0.5062562090960796   F   F   F
  0.8039666124841744  0.1672833550888839  0.9937437909039204   F   F   F
  0.6962335898167801  0.6684024854809897  0.4935076287817114   T   T   T
  0.8039666124841744  0.3327166449111161  0.9937437909039204   F   F   F
  0.6960775882542365  0.8315821242493635  0.4944319059820085   T   T   T
  0.0930124771465350  0.7500047333294495  0.0200336790780443   T   T   T
  0.4068435254241223  0.2500000000000000  0.5199589040338424   F   F   F
  0.9068435254241223  0.2500000000000000  0.9800410959661576   F   F   F
  0.5923420714056248  0.7499356667608956  0.4814654461647166   T   T   T
  0.0813696878036462  0.8699787775744234  0.9350691660880309   T   T   T
  0.4191681511649463  0.3696157380695979  0.4342049483443873   F   F   F
  0.0813317131015664  0.6300332282076481  0.9348308455116013   T   T   T
  0.4191681511649463  0.1303842619304021  0.4342049483443873   F   F   F
  0.9191681511649392  0.1303842619304021  0.0657950516556127   F   F   F
  0.5813021499377306  0.6299757574669944  0.5651670245597045   T   T   T
  0.9191681511649392  0.3696157380695979  0.0657950516556127   F   F   F
  0.5804903941786570  0.8693913800154955  0.5653289100619708   T   T   T
  0.1214999875499290  0.8398432729881969  0.7483118787947665   T   T   T
  0.3785939221413273  0.3399016741142518  0.2475054947775277   F   F   F
  0.1220860087945152  0.6599995121580352  0.7484955582947743   T   T   T
  0.3785939221413273  0.1600983258857482  0.2475054947775277   F   F   F
  0.8785939221413201  0.1600983258857482  0.2524945052224723   F   F   F
  0.6222526273679030  0.6599491687569772  0.7519342727590359   T   T   T
  0.8785939221413201  0.3399016741142518  0.2524945052224723   F   F   F
  0.6221358469838639  0.8402657555750328  0.7520474652693017   T   T   T
  0.2029872281570164  0.7501068214066302  0.6707049131807884   T   T   T
  0.2968133864148328  0.2500000000000000  0.1713179004415224   F   F   F
  0.7968133864148328  0.2500000000000000  0.3286820995584776   F   F   F
  0.7030399911916552  0.7501337850942407  0.8295573315379898   T   T   T
  0.4240099490616913  0.0712238689892644  0.6879805273312769   F   F   F
  0.0759900509383087  0.5712238689892644  0.1879805273312769   F   F   F
  0.4240099490616913  0.4287761310107356  0.6879805273312769   F   F   F
  0.0759676048936557  0.9288012171156610  0.1882374259525867   T   T   T
  0.5760746717463342  0.9287250468643715  0.3117580536164876   T   T   T
  0.9240099490616913  0.4287761310107356  0.8120194726687231   F   F   F
  0.5759900509383087  0.5712238689892644  0.3120194726687231   F   F   F
  0.9240099490616913  0.0712238689892644  0.8120194726687231   F   F   F
  0.3227198167376812  0.0323507114762833  0.8432574132120010   F   F   F
  0.1772801832623188  0.5323507114762833  0.3432574132120010   F   F   F
  0.3227198167376812  0.4676492885237167  0.8432574132120010   F   F   F
  0.1773262443888656  0.9676684550620549  0.3431947502710285   T   T   T
  0.6773378457767716  0.9676970877014933  0.1567401580312770   T   T   T
  0.8227198167376812  0.4676492885237167  0.6567425867879990   F   F   F
  0.6772801832623188  0.5323507114762833  0.1567425867879990   F   F   F
  0.8227198167376812  0.0323507114762833  0.6567425867879990   F   F   F
  0.2779386767015382  0.0519583657721796  0.0611307184073340   F   F   F
  0.2220613232984618  0.5519583657721796  0.5611307184073340   F   F   F
  0.2779386767015382  0.4480416342278204  0.0611307184073340   F   F   F
  0.2218922596827883  0.9479835487491849  0.5611667865811013   T   T   T
  0.7221734179498533  0.9482672241298017  0.9390910092954134   T   T   T
  0.7779386767015382  0.4480416342278204  0.4388692815926660   F   F   F
  0.7220613232984618  0.5519583657721796  0.9388692815926660   F   F   F
  0.7779386767015382  0.0519583657721796  0.4388692815926660   F   F   F
  0.1225104503909904  0.0527779080613016  0.0479940299588080   F   F   F
  0.3774895496090096  0.5527779080612945  0.5479940299588080   F   F   F
  0.1225104503909904  0.4472220919386984  0.0479940299588080   F   F   F
  0.3775042340921052  0.9476973598610102  0.5474132291599265   T   T   T
  0.8774469544423942  0.9472919283332174  0.9521772203632947   T   T   T
  0.6225104503909904  0.4472220919386984  0.4520059700411920   F   F   F
  0.8774895496090096  0.5527779080612945  0.9520059700411920   F   F   F
  0.6225104503909904  0.0527779080613016  0.4520059700411920   F   F   F
  0.0722297752641694  0.0390952680378902  0.8235403254031510   F   F   F
  0.4277702247358306  0.5390952680378902  0.3235403254031510   F   F   F
  0.0722297752641694  0.4609047319621098  0.8235403254031510   F   F   F
  0.4278711541722575  0.9606838383822128  0.3230142163607616   T   T   T
  0.9276876310275242  0.9608109014499491  0.1767490173655874   T   T   T
  0.5722297752641694  0.4609047319621098  0.6764596745968490   F   F   F
  0.9277702247358306  0.5390952680378902  0.1764596745968490   F   F   F
  0.5722297752641694  0.0390952680378902  0.6764596745968490   F   F   F
  0.2011043077742869  0.0703822647950858  0.7135284737427909   F   F   F
  0.2988956922257131  0.5703822647950858  0.2135284737427909   F   F   F
  0.2011043077742869  0.4296177352049142  0.7135284737427909   F   F   F
  0.2989392592461013  0.9295301745799437  0.2136099536101854   T   T   T
  0.7987892436229903  0.9295900247117246  0.2865345622907947   T   T   T
  0.7011043077742869  0.4296177352049142  0.7864715262572091   F   F   F
  0.7988956922257131  0.5703822647950858  0.2864715262572091   F   F   F
  0.7011043077742869  0.0703822647950858  0.7864715262572091   F   F   F
  0.4225833897018161  0.8282363647955946  0.6861746199115444   T   T   T
  0.0776147133579599  0.3277153649932174  0.1851848138450478   F   F   F
  0.4228539197748191  0.6717205317071508  0.6860644618709045   T   T   T
  0.0776147133579599  0.1722846350067826  0.1851848138450478   F   F   F
  0.5776147133579599  0.1722846350067826  0.3148151861549522   F   F   F
  0.9227007647816934  0.6722646862118209  0.8149273342971671   T   T   T
  0.5776147133579599  0.3277153649932174  0.3148151861549522   F   F   F
  0.9224445720194840  0.8277608945630011  0.8151732844375087   T   T   T
  0.3167766493229230  0.8744003880203315  0.8349450380965592   T   T   T
  0.1830680121786585  0.3744867008663704  0.3347839836351412   F   F   F
  0.3172366078244171  0.6255874419676913  0.8349197288988529   T   T   T
  0.1830680121786585  0.1255132991336296  0.3347839836351412   F   F   F
  0.6830680121786585  0.1255132991336296  0.1652160163648588   F   F   F
  0.8173908118515120  0.6255276133722389  0.6652175649745851   T   T   T
  0.6830680121786585  0.3744867008663704  0.1652160163648588   F   F   F
  0.8173159780606575  0.8745527354452413  0.6652688139294191   T   T   T
  0.2729767976900321  0.8275019525343585  0.0402164153542339   T   T   T
  0.2273307924942145  0.3277299682844301  0.5397963552221228   F   F   F
  0.2729914674512123  0.6723438983297296  0.0400447908500284   T   T   T
  0.2273307924942145  0.1722700317155699  0.5397963552221228   F   F   F
  0.7273307924942145  0.1722700317155699  0.9602036447778772   F   F   F
  0.7730112937929969  0.6725172793628164  0.4600449111770692   T   T   T
  0.7273307924942145  0.3277299682844301  0.9602036447778772   F   F   F
  0.7727782393260105  0.8276594207281162  0.4603469091593881   T   T   T
  0.1173408436626695  0.8278490687408614  0.0236079924221433   T   T   T
  0.3829046392724536  0.3279865241180246  0.5228273843902258   F   F   F
  0.1173508831613756  0.6721319448871119  0.0232933346292635   T   T   T
  0.3829046392724536  0.1720134758819754  0.5228273843902258   F   F   F
  0.8829046392724536  0.1720134758819754  0.9771726156097742   F   F   F
  0.6173072041541665  0.6721737263223767  0.4765485939709675   T   T   T
  0.8829046392724536  0.3279865241180246  0.9771726156097742   F   F   F
  0.6171902159026851  0.8277903217673747  0.4766509129774805   T   T   T
  0.0685822401236215  0.8806029326755419  0.8160025072128787   T   T   T
  0.4316422255872467  0.3805306503245163  0.3150522314059216   F   F   F
  0.0687966250653402  0.6194270053923658  0.8157128803162709   T   T   T
  0.4316422255872467  0.1194693496754837  0.3150522314059216   F   F   F
  0.9316422255872467  0.1194693496754837  0.1849477685940784   F   F   F
  0.5693090893220932  0.6194880245019406  0.6843742205076324   T   T   T
  0.9316422255872467  0.3805306503245163  0.1849477685940784   F   F   F
  0.5687669115552680  0.8802073193811164  0.6845622864588921   T   T   T
  0.1947733579404155  0.8280843490122015  0.7032618732216906   T   T   T
  0.3049811923033445  0.3281471210548332  0.2034825387585641   F   F   F
  0.1952839428698337  0.6720275105478745  0.7031865838598779   T   T   T
  0.3049811923033445  0.1718528789451668  0.2034825387585641   F   F   F
  0.8049811923033445  0.1718528789451668  0.2965174612414359   F   F   F
  0.6956257962857557  0.6720641715326974  0.7968422232505390   T   T   T
  0.8049811923033445  0.3281471210548332  0.2965174612414359   F   F   F
  0.6955484723283538  0.8282192528932093  0.7968318542938350   T   T   T
  0.4231304119635341  0.7559062919771775  0.4545177662545253   T   T   T
  0.3360171739690591  0.7365001621142888  0.4336436715865422   T   T   T
  0.2833326040104781  0.7250758590401517  0.4011916546142879   T   T   T
  0.4591694678134145  0.7677206706812879  0.3384208590952071   T   T   T
 
  0.00000000E+00  0.00000000E+00  0.00000000E+00
  0.00000000E+00  0.00000000E+00  0.00000000E+00
  0.00000000E+00  0.00000000E+00  0.00000000E+00
  0.00000000E+00  0.00000000E+00  0.00000000E+00
  0.00000000E+00  0.00000000E+00  0.00000000E+00
  0.00000000E+00  0.00000000E+00  0.00000000E+00
  0.00000000E+00  0.00000000E+00  0.00000000E+00
  0.00000000E+00  0.00000000E+00  0.00000000E+00
  0.00000000E+00  0.00000000E+00  0.00000000E+00
  0.00000000E+00  0.00000000E+00  0.00000000E+00
  0.00000000E+00  0.00000000E+00  0.00000000E+00
  0.00000000E+00  0.00000000E+00  0.00000000E+00
  0.00000000E+00  0.00000000E+00  0.00000000E+00
  0.00000000E+00  0.00000000E+00  0.00000000E+00
  0.00000000E+00  0.00000000E+00  0.00000000E+00
  0.00000000E+00  0.00000000E+00  0.00000000E+00
  0.00000000E+00  0.00000000E+00  0.00000000E+00
  0.00000000E+00  0.00000000E+00  0.00000000E+00
  0.00000000E+00  0.00000000E+00  0.00000000E+00
  0.00000000E+00  0.00000000E+00  0.00000000E+00
  0.00000000E+00  0.00000000E+00  0.00000000E+00
  0.00000000E+00  0.00000000E+00  0.00000000E+00
  0.00000000E+00  0.00000000E+00  0.00000000E+00
  0.00000000E+00  0.00000000E+00  0.00000000E+00
  0.00000000E+00  0.00000000E+00  0.00000000E+00
  0.00000000E+00  0.00000000E+00  0.00000000E+00
  0.00000000E+00  0.00000000E+00  0.00000000E+00
  0.00000000E+00  0.00000000E+00  0.00000000E+00
  0.00000000E+00  0.00000000E+00  0.00000000E+00
  0.00000000E+00  0.00000000E+00  0.00000000E+00
  0.00000000E+00  0.00000000E+00  0.00000000E+00
  0.00000000E+00  0.00000000E+00  0.00000000E+00
  0.00000000E+00  0.00000000E+00  0.00000000E+00
  0.00000000E+00  0.00000000E+00  0.00000000E+00
  0.00000000E+00  0.00000000E+00  0.00000000E+00
  0.00000000E+00  0.00000000E+00  0.00000000E+00
  0.00000000E+00  0.00000000E+00  0.00000000E+00
  0.00000000E+00  0.00000000E+00  0.00000000E+00
  0.00000000E+00  0.00000000E+00  0.00000000E+00
  0.00000000E+00  0.00000000E+00  0.00000000E+00
  0.00000000E+00  0.00000000E+00  0.00000000E+00
  0.00000000E+00  0.00000000E+00  0.00000000E+00
  0.00000000E+00  0.00000000E+00  0.00000000E+00
  0.00000000E+00  0.00000000E+00  0.00000000E+00
  0.00000000E+00  0.00000000E+00  0.00000000E+00
  0.00000000E+00  0.00000000E+00  0.00000000E+00
  0.00000000E+00  0.00000000E+00  0.00000000E+00
  0.00000000E+00  0.00000000E+00  0.00000000E+00
  0.00000000E+00  0.00000000E+00  0.00000000E+00
  0.00000000E+00  0.00000000E+00  0.00000000E+00
  0.00000000E+00  0.00000000E+00  0.00000000E+00
  0.00000000E+00  0.00000000E+00  0.00000000E+00
  0.00000000E+00  0.00000000E+00  0.00000000E+00
  0.00000000E+00  0.00000000E+00  0.00000000E+00
  0.00000000E+00  0.00000000E+00  0.00000000E+00
  0.00000000E+00  0.00000000E+00  0.00000000E+00
  0.00000000E+00  0.00000000E+00  0.00000000E+00
  0.00000000E+00  0.00000000E+00  0.00000000E+00
  0.00000000E+00  0.00000000E+00  0.00000000E+00
  0.00000000E+00  0.00000000E+00  0.00000000E+00
  0.00000000E+00  0.00000000E+00  0.00000000E+00
  0.00000000E+00  0.00000000E+00  0.00000000E+00
  0.00000000E+00  0.00000000E+00  0.00000000E+00
  0.00000000E+00  0.00000000E+00  0.00000000E+00
  0.00000000E+00  0.00000000E+00  0.00000000E+00
  0.00000000E+00  0.00000000E+00  0.00000000E+00
  0.00000000E+00  0.00000000E+00  0.00000000E+00
  0.00000000E+00  0.00000000E+00  0.00000000E+00
  0.00000000E+00  0.00000000E+00  0.00000000E+00
  0.00000000E+00  0.00000000E+00  0.00000000E+00
  0.00000000E+00  0.00000000E+00  0.00000000E+00
  0.00000000E+00  0.00000000E+00  0.00000000E+00
  0.00000000E+00  0.00000000E+00  0.00000000E+00
  0.00000000E+00  0.00000000E+00  0.00000000E+00
  0.00000000E+00  0.00000000E+00  0.00000000E+00
  0.00000000E+00  0.00000000E+00  0.00000000E+00
  0.00000000E+00  0.00000000E+00  0.00000000E+00
  0.00000000E+00  0.00000000E+00  0.00000000E+00
  0.00000000E+00  0.00000000E+00  0.00000000E+00
  0.00000000E+00  0.00000000E+00  0.00000000E+00
  0.00000000E+00  0.00000000E+00  0.00000000E+00
  0.00000000E+00  0.00000000E+00  0.00000000E+00
  0.00000000E+00  0.00000000E+00  0.00000000E+00
  0.00000000E+00  0.00000000E+00  0.00000000E+00
  0.00000000E+00  0.00000000E+00  0.00000000E+00
  0.00000000E+00  0.00000000E+00  0.00000000E+00
  0.00000000E+00  0.00000000E+00  0.00000000E+00
  0.00000000E+00  0.00000000E+00  0.00000000E+00
  0.00000000E+00  0.00000000E+00  0.00000000E+00
  0.00000000E+00  0.00000000E+00  0.00000000E+00
  0.00000000E+00  0.00000000E+00  0.00000000E+00
  0.00000000E+00  0.00000000E+00  0.00000000E+00
  0.00000000E+00  0.00000000E+00  0.00000000E+00
  0.00000000E+00  0.00000000E+00  0.00000000E+00
  0.00000000E+00  0.00000000E+00  0.00000000E+00
  0.00000000E+00  0.00000000E+00  0.00000000E+00
  0.00000000E+00  0.00000000E+00  0.00000000E+00
  0.00000000E+00  0.00000000E+00  0.00000000E+00
  0.00000000E+00  0.00000000E+00  0.00000000E+00
  0.00000000E+00  0.00000000E+00  0.00000000E+00
  0.00000000E+00  0.00000000E+00  0.00000000E+00
  0.00000000E+00  0.00000000E+00  0.00000000E+00
  0.00000000E+00  0.00000000E+00  0.00000000E+00
  0.00000000E+00  0.00000000E+00  0.00000000E+00
  0.00000000E+00  0.00000000E+00  0.00000000E+00
  0.00000000E+00  0.00000000E+00  0.00000000E+00
  0.00000000E+00  0.00000000E+00  0.00000000E+00
  0.00000000E+00  0.00000000E+00  0.00000000E+00
  0.00000000E+00  0.00000000E+00  0.00000000E+00
  0.00000000E+00  0.00000000E+00  0.00000000E+00
  0.00000000E+00  0.00000000E+00  0.00000000E+00
  0.00000000E+00  0.00000000E+00  0.00000000E+00
  0.00000000E+00  0.00000000E+00  0.00000000E+00
  0.00000000E+00  0.00000000E+00  0.00000000E+00
  0.00000000E+00  0.00000000E+00  0.00000000E+00
  0.00000000E+00  0.00000000E+00  0.00000000E+00
  0.00000000E+00  0.00000000E+00  0.00000000E+00
  0.00000000E+00  0.00000000E+00  0.00000000E+00
  0.00000000E+00  0.00000000E+00  0.00000000E+00
  0.00000000E+00  0.00000000E+00  0.00000000E+00
  0.00000000E+00  0.00000000E+00  0.00000000E+00
  0.00000000E+00  0.00000000E+00  0.00000000E+00
  0.00000000E+00  0.00000000E+00  0.00000000E+00
  0.00000000E+00  0.00000000E+00  0.00000000E+00
  0.00000000E+00  0.00000000E+00  0.00000000E+00
  0.00000000E+00  0.00000000E+00  0.00000000E+00
  0.00000000E+00  0.00000000E+00  0.00000000E+00
  0.00000000E+00  0.00000000E+00  0.00000000E+00
  0.00000000E+00  0.00000000E+00  0.00000000E+00
  0.00000000E+00  0.00000000E+00  0.00000000E+00
  0.00000000E+00  0.00000000E+00  0.00000000E+00
  0.00000000E+00  0.00000000E+00  0.00000000E+00
  0.00000000E+00  0.00000000E+00  0.00000000E+00
  0.00000000E+00  0.00000000E+00  0.00000000E+00
  0.00000000E+00  0.00000000E+00  0.00000000E+00
  0.00000000E+00  0.00000000E+00  0.00000000E+00
  0.00000000E+00  0.00000000E+00  0.00000000E+00
  0.00000000E+00  0.00000000E+00  0.00000000E+00
  0.00000000E+00  0.00000000E+00  0.00000000E+00
  0.00000000E+00  0.00000000E+00  0.00000000E+00
  0.00000000E+00  0.00000000E+00  0.00000000E+00
  0.00000000E+00  0.00000000E+00  0.00000000E+00
  0.00000000E+00  0.00000000E+00  0.00000000E+00
  0.00000000E+00  0.00000000E+00  0.00000000E+00
  0.00000000E+00  0.00000000E+00  0.00000000E+00
  0.00000000E+00  0.00000000E+00  0.00000000E+00
  0.00000000E+00  0.00000000E+00  0.00000000E+00
  0.00000000E+00  0.00000000E+00  0.00000000E+00
  0.00000000E+00  0.00000000E+00  0.00000000E+00
  0.00000000E+00  0.00000000E+00  0.00000000E+00
  0.00000000E+00  0.00000000E+00  0.00000000E+00
  0.00000000E+00  0.00000000E+00  0.00000000E+00
  0.00000000E+00  0.00000000E+00  0.00000000E+00
  0.00000000E+00  0.00000000E+00  0.00000000E+00
  0.00000000E+00  0.00000000E+00  0.00000000E+00
  0.00000000E+00  0.00000000E+00  0.00000000E+00
  0.00000000E+00  0.00000000E+00  0.00000000E+00
  0.00000000E+00  0.00000000E+00  0.00000000E+00
  0.00000000E+00  0.00000000E+00  0.00000000E+00
  0.00000000E+00  0.00000000E+00  0.00000000E+00
  0.00000000E+00  0.00000000E+00  0.00000000E+00
  0.00000000E+00  0.00000000E+00  0.00000000E+00
  0.00000000E+00  0.00000000E+00  0.00000000E+00
  0.00000000E+00  0.00000000E+00  0.00000000E+00
  0.00000000E+00  0.00000000E+00  0.00000000E+00
  0.00000000E+00  0.00000000E+00  0.00000000E+00
  0.00000000E+00  0.00000000E+00  0.00000000E+00
  0.00000000E+00  0.00000000E+00  0.00000000E+00
  0.00000000E+00  0.00000000E+00  0.00000000E+00